11374 11805





8937 9918

9149





9847







2304 7211 7897









484 4898 7083






1528 2464


10741
167 5838 6213 7311 9015









316 779 1601 2259 2594 2707 3513 4788 5732 6975 7446 8280 8281 8398








3028
1387 2353 3318 5748



7711


952





10881


134 307 1647 2597 3816 5009 5485 6187 6213 7209 7320 7495 8164 8782 9225 9442 9562 9734 9779










591 817 2353 3318 4242 5087 6527 7204 7348 7444 7454 9077 11102 11139





4134 7207 7545 9024 9359 10209
8625


1387 4176 4967 5254 6481 6527 7204 8550



10372

9281 10843

1708 7308
4310 4991

2201





8624
5561 8591

713 2128 2805 2970 4425 4536 5376 5763 6293 7108 8059 8849 9151 10407 10431 11139

506 2045 2309

8059 8737 11359




172 331 1045 1634 3225 3429 4357 4626 5281 5728 6582 7040 9347 10148

6700 7709 9491 9777
5123 5342 6859 7055
3225 4169 4196
79 2045 4327 5889 7991 9065
215 654 952 2452 2784 4444 5490 6360 8272 8411 9411 10086 10344


4276 7974

5862

6661 8376






1967 7893









573 885 1044 1704 4472 9205 9562



3127 6506 7085

1267 2323 9213

43 477 672 1748 1836 4391 4413 5354 5642 6072 6620 6925 7549 7634 8050 8424 8549 8550 9139 9205 9847 11020

1083 2147 2744 5304 10394


129 1366 2594 2664 4043 4695 5598 5713 7694 7711 7726 9212 10644



875 3462 6589 9682 10320 10764
5087 5130 5735 8432 8517 9690 10294

1119 1267 1893 7211 8128



2046 2364 2390 3065 3312 4142 5133 5403 5638 7171 8752 9455 11365
2212 2747 3163 10033 11278




4175

4136



412 7784



713 976 3247 5087 5098 6479 6527 10207 10961
6080
4384 5240 5556 6473 9335 10977
5704 6429

1799 2458 3373 5230 7254 7677 10052
847 1418 1538 5721 7791




4770




135 821 966 3555 4996 5163 5767 6398 8932 9156 9861 9940
5805 6685 7008 8612 9106 9288
425 1051 1083 1623 1708 1715 2085 2369 3271 3372 4176 4177 5378 6741 6787 7048 7424 8424 9411 9537 9562 10344 10540 11217 11246




4798
1358 1851 5009 5889 6612 8495 8577 9996 10989 11082


254 1881 2693 2877 4658 5687 6148 6172 6181 6412 9713 10525
1225 5440

6294 6881 11089
562 1308 9249

4710 4961 8676

1012 1083 1623 4309 5205 6833 8419 10209


2505 6683


4065 4344


7059 7545


5997 9337






529 1150 1205 1206 1232 1237 1254 1384 1394 1411 1416 1528 1603 1631 1704 1753 1892 2195 2303 2447 2500 2508 2654 2808 2955 3391 3402 3407 3570 3667 3832 3923 4114 4142 4247 4391 4397 4848 4943 5048 5115 5141 5287 5539 5635 5716 5798 5807 5823 5894 6013 6066 6141 6297 6318 6392 6429 6844 6852 6925 7062 7262 7356 7447 7458 7553 7570 7679 7689 8003 8059 8087 8223 8502 8591 8660 8952 9065 9168 9316 9397 9475 9535 9650 9654 9766 9813 9823 10043 10086 10288 10306 10396 10464 10606 10668 10763 10770 10980 11077 11102
226 4050 5909 11246



713 4961 5436 11365






3321 6192
274 2111 2124 5846 10082


8591 9355


5251

266 2464 4626 6187 6527 7047 7265 8609 9775 9850
630 5794 9232 9562

1150 1923 2195 3379 4397 4626 4648 7715 8241 8502 10083

3219 7796 8540 9149 10241 10396 10969 11170

5574
709 1157 1609 2387 2680 3371 4429 5732 8208 9391 10788
1729 5490





573 9205 9766 10241
2689 3409 3984 4326 4427 4529 6696 7711











307 1189 1715 4403 4728 5144 7550 8581 9288 10084 10095 10402 10644




79 302 350 721 779 1534 1798 1955 2110 3501 3787 4039 4310 4436 4654 4952 5452 5721 6450 6975 7003 7316 7814 8219 8264 8773 9212 9707 9734 9862 9974 10095 10881 10923 11349
3310 9919
6018
9626

1231 1473 4429 6178 10689
527 705 1198 2663 2763 2803 4177 5484 5900 6321 6603 8389 9015 9156 9972 10251 11119


53
1503 1955

4871 10084

6148 7561 8985 10186 10764

8932

2345 8517 8807 9501 9562

4587 4842 5036 5116 10236 10892 11039 11306

8624
2319 10460
129 576 8819 11112


2786 3371 4303 5257 7659 7685 10460 10598 11285

1704 3005 6192 6683

5480 9364 10166
727 847 1094 1569 2806 2877 4436 4646 5326 5598 5721 7791 9012 9533 9754 10636
1704 5309 6334 6525 7015 9103 11295


1411
1508 2693 3664 3816 4963 6214 6438 7452 10213
8627
3942
573 894 1498 2594 2609 3937 4169 4503 5735 8200 8609 9464

8083
307 1486 3191 4029 5728 6047 8345 8370 9024 9847 10742








452




10540
1444 2643



1389 3543 4386 7004 8090 8161 8376 9847 10925 11170

484 573 4416 9678 10990 11010


3074 10166



7711

477 966 2417 3726 4740 5716 7062 7511 7660 8952 9053 9326 9392 11285
2303 2744 3667 3832 3923 4442 6392 6613 6836 7018 8591 9475 10246 11139



478 5111 8237 8305 10347


606 827 966 1008 1387 2675 3219 3453 3536 3749 4240 4408 4467 4978 5814 7015 8056 8059 8842 9690 10485 10974
589 1598 2389 3011 3159 11020
6278


8360


1083 3390 5254 9562 10590







6445

9747

1498 5436 6527 7116 7493 9747 10871 10990



195 1492 2218 2231 2914 3362 5997 7174 8743 9805 10101 11205






971 1022 1629 2479 3712 5224 5326 5485 6445 7429 7504 7766 8848 9037
9775 9850
474 713 1387 1685 1934 2096 2266 3704 4142 5251 5859 6187 8300 8509 8517 8591 9562


9945
217 1125 2899 3881 4326 4391 4405 5439 5769 6384 8376 8549 9397 10918

4288 7671 8330 9432



705 1083 4571 4763 4983 6731
536 2954 3137 3572 5259 6067 7012 7129 7163 7344 7819 8175 8610 8620 8849 8988 9777 9816 11365
6134







2045



1038 1685 4666 8720


9763

7129

359 1369 2187 3225 3726 6297 7671 9655 9813 10082
608
1387 1847 2345 2617 2683 3329 4884 6187 6527 6840 7652 9151 10105 10460 10860 10920 11365








5769

3934



2110 3028 9857


700 7234
1719 3567
421 10459


167 380 654 1334 1559 1637 1753 2195 2432 2735 3570 3825 3903 4001 4348 4579 5989 6318 6506 8497 8549 8937 8952 9053 9475 9518 10394 10448 10606 11077 11260
385 4436 8585 10320 10897

1763 1817 4161 4240
7897


32 371 624 933 1835 3585 5044 5347 5593 7671 8609 9316 9562 9763 10010





3631 4872 6939 8293 9562 10597
1060 4039 4802 4879 6118 7357 8270 8360 9364 10745 11217




2257 5347 5593 5916 7116 8181 8609 9777 9785
1157 2301 6187 7858 9678 9815
2680


1083
4472



122 847 2065 5485 5795 8612 9225 10577 10636







1267 2543 2555 2743 3492 4140 4368 4666 7139 7920 10534
5605
654 672 1150 1232 1411 1753 1799 1923 2440 2680 2943 3348 3371 3452 3542 3564 3570 3726 3846 4136 4391 4848 5048 5115 5141 5767 5807 6195 6429 6471 6844 6852 6925 7062 7074 7217 7730 7808 8516 8679 8726 8764 8823 8937 9181 9232 9316 9650 9655 9813 9834 10263 10606 10766 10967 10980 11260
5721 7308 8992
7094 7184


3272 3917 6450 8612



10635

313 2055 3775 5593 8161 8528 8660 8741 10054 11328

253 4348 5593 8737






432 1000 3876 3967 5133 6276 8743











5402 9205







9839

8970



230 1772 5309 8733 11362

727 4219 4384 4654 4871 4991 6611 9163 10510
11020

3513



4075 4770 5180 6067 6091 6476 6700 9150 9215

159 289 347 371 1391 2121 2480 2781 3379 3503 3922 4391 4416 4568 4716 4898 5820 6113 6223 6233 6447 6547 6701 7536 7909 8843 9598 9712 9970 10241 10768 11091 11364

3414
331
6200
2045 8591
727 952 2958 3707 5598 6213 6325 6606 8051 8624 10186
1893 3420 5278 10261







1769 6574
389 2973

90 713 8162 9851
1224 3712 4978 5259 5753 5890


4743 5143
1150 1528 2294 3726 8161 10967 11260



3140 4160 5910 8051 8477 9866

2729 3118 7919


2608 9988
388

453 2784 3095 7343 7550 9523

910 925 1534 1601 2747 3513 3778 4788 6139 6267 7884 11215






8872
1045 1094 2207 2740 3650 6438 6515 6553 7357 7561 8325 8814 9100 9319 10247 10501 10989


1430 5485 11100
6494 8047
6214 6603 7424
484 6799
8670



2781 4549 6233
275 1384 1403 1457 1912 2388 2663 3038 3321 3729 4053 4326 4758 6493 8161 9139 9521 10288 10301 10764
1133 1655 2345 2786 3351 3698 3871 4562 5206 6407 7015 8284 8395 11139









2747








5582

5642 11010 11189
1201 2618 3023 3984 4027 4858 4910 5354 5501 7015 8424 9942
135 477 516 672 922 952 1150 1237 2851 2940 2943 4326 4339 4848 6019 6187 6362 6429 7234 7660 8363 8425 8550 9015 9149 9316 10327 10365 10606 10668
1076 6975
2264 2440 7689
2119 2599 2998 3136 5044 5278 6080 9005 9687





1045 6192



8462 10839




167 516 654 2417 4391 8424 8665 9139 10052 11189

2689 10086 11170


8821





3607 6118



5485 10723



7234


10347


5598 7550


472 1150 1923 4012 4327 7217 9535 9655 11182




313 431 5048 10074 10213



282 3941 5304 10394 11339
4872 4991
6904

120 199 258 421 591 757 1224 1771 2534 2970 3326 3676 4252 4600 4759 4890 5255 5436 5583 5753 6802 6981 6992 7239 7348 8025 8212 8620 8624 8988 9099 9112 9691 9806 9816 9993 10085 10299 10961 11359
3130 3892 4666 9188
10241 11010 11153





307 4444 5267 6214 6325 9012 9225 9429





339 564 579 861 868 1083 1098 1366 1569 2259 2309 3930 4054 4315 4436 4751 5452 6181 6450 6972 7343 7446 7906 8612 8729 9015 10199 10487 11059









3902 6612 9945




7711






5688





1968 6638 6836 10213
2943
713 7204

6019



2045 2729 5758 7919
3664 5326




2508 2799 7559 10967


8161

1403 2861 4542 4758 4792 5116 5615 5883 6429 6471 7504 7553 7901 9847 9953 10301 10770 11227
6066 6074



53 307 1480 2806 3021 3501 4449 4880 6311 6450 7008 7343 7791 8305 8612 10461 10487 10497 10861 10881
5240

905 1267 3892 6080 7897




2689 4386 11227
1704 4884 4978 5021 6392 6844 8962 9246 11020 11153






10347







5347 9805 10990


3225 5691 8636 10365








896 1181 2417 2735 7018 7234 8425 9015

90 2220 2231

9548

215 1738 1895 4193 7433 9065 9411 9562 10347
5055




388 8564
2312 4303 8050 9149 10202











2395 3790 7712 8360


3318 6527 8050


994 2955
205 339 506 2110 3934 4871 4991 6894 7545 8577 9163 9233 10084





1016 10356







727 1052 1358 1809 1851 3934 4755 4879 4988 4991 5732 5833 8918 9562





2528 3110 3596 4128 9751 10205
727 3934 4039 4128 4658 5009 6118 8915 9439 9747 10636





8081
176




1637 5620 8948 9391




159 8679



1264 4012 4110

6297 7109 8679 9813


347 2820 8836 9523
6571
815
4726 7460



9054

6067 9250

782


937 3011 4160 5224 7626 7711 7923 9411

610 999 1014 1225 1366 1708 2110 2650 3060 3935 4620 5598 6491 6799 6975 7733 7884 8083 8875 10033 10111 10130 10313 10394 11059





5304 10159


10839
3958

654 6056 7152


610 6818 9100 9212 9959 10402







484 1091 1232 2017 2294 2396 3073 4743 5783 8314 8679 9015 9064 9112 9151 9205 9754 9847 10086 10788 11303
3839 8050
1658

908 1715 2381 3023 3038 3313 3881 4176 4193 4812 5838 5875 6321 6661 6799 7984 8430 9562 11112







9233
9077

7131


1839 3702 4176 9464
70 135 579 654 1014 1052 1212 1414 1634 1746 1851 1955 2110 2207 2259 2460 3009 3163 3462 3607 3881 3935 3954 4166 4226 4871 5453 5683 5707 5713 5732 5758 5872 6554 6619 6939 6966 7008 7316 7892 8244 8316 8325 8874 8918 9186 9751 9886 9920 10033 10084 10148 10199 10277 10412 10510 10624 10849 10897 11217


10989






7204
4758


215 380 388 1799 2417 2896 4702 4858 7202 7634 8047 8879
5464 8175
5806


419 986 3118 3789 5490 5758 6355
2537 4947 6527


976
199 975 3472 4734 5259 5316 5436 5567 6527 8025 8094 8212 8658 9816






1751


971 1083 1414 2289 3567 3838 4176 4449 5485 7134 9225 10394




2134 7965

9850 10766
846 1839 2673 2786 4065 4884 4996 5116 5814 6471 7018 7109 7167 7207 7784 7841 8702 9562 9775 10763 10839
1225



910 6684 6975 7674 8918
536 5805 10897







388



234 1232 1447 1724 2147 2358 2460 2494 2528 2754 2887 3631 3881 3930 4202 4384 5758 6118 6178 6218 6321 7376 7909 8161 8432 8485 8874 10590 11015
10540
910 952 1366 1850 2650 5144 5598 5741 6213 6909 8468 9388 9482 9945 10402 10461

853 5216
1431 2661 4142 4425 7749 9806

1150
5063

419 2808 3219

4952 10828






6878






445 1709 3367 5123 7892 8425 9846
1098



4711 6194 6778 9789 10313 11294
159 1861 3225 4626 5021 6141 8660 8679 8894 10241
129 618 663 1266 1634 3864 4425 5161 5480 6800 7512 8657 10005 10297 10828


3483 7094 8448


217 7019 9712
861 952 2058 2177 2592 4347 4393 4436 4991 5326 6058 6148 6213 6864 6894 8577 9243 9288 10704



3360 4601 5347 5584 5735 5881 6392


9850
491 2784 9562



5354 7784 8135
3778 4054 4712 5719 6975 9100 10828







3848 5182
1655 1772 3967 8131 9690 10440 11205

655 1225 3442 4975 9559



8500


169 217 234 396 431 501 727 986 1094 1296 1414 1597 1634 2017 2045 2049 2134 2395 2913 3027 3073 3271 3656 3664 3881 3969 3970 4029 4128 4167 4310 4327 4571 4743 4799 5009 5484 5602 5677 5707 5758 5941 6306 6435 6515 6799 6839 7003 7040 7262 7316 7416 7561 8090 8151 8161 8410 8492 8662 8749 8915 9015 9149 9281 9391 9401 9481 9713 9732 9771 9984 10376 10501



9491


3373
933 1300 3073 3271 6360 8353 9205 9639 10590

6661
339 618 1083 1955 2410 2877 2903 4054 4646 4907 5267 5326 5598 5658 6213 7025 7442 7550 7873 8051 8360 8369 8918 9012 9169 9182 9886 10327 10996 11020

8603
4043 4944 5113
727 1039 1340 1798 2572 3958 4153 6100 6685 7003 7059 7308 8432 8685 9857 10911


3958 4654 4991 6362 6975 6991 8180 9163 9920 10084 10960



3656


4253

7642
4654 4872 9881

1736 2694 4092 4990 6192 7207 8294 8390 8809 8849 9151 11027

1444 2301 4142 4916 8330 8792 11365
3371


179 4947 8450
3230 4238 8270 11334




425 2896 3467 6191 6213 8627
9775
1783
4436



6812 10925
631 1771 2590 3384 5087 5347 5930 6293 6527 6770 7015 7315 7744 8128 8135 9851 11102
8050
5087
4842 5593 8012 9550
3857 8609 9509 10218
4842 6187 7493 9205





2784 6187 8609





253 277 516 596 654 700 1019 3382 4579 4645 6462 7116 9011 9015 11119






282 497 1181 2096 2591 2689 4529 5216 6017 6561 8161 8221 8735 9001 9033 9611 10010 10054 11000




2214 3971 4316 4586 4784




2134 4176 9149
1799





2650 7672
4890 5821 8792 9691 10960





815 1157 1254 1753 1799 2195 2515 2639 2955 3564 3726 4743 5048 5501 5767 5989 6497 6661 6799 6800 7217 9181 9281 9650 10086 10301 10764 11170


3783 8187 9777
4436



302 5795 7059 7550 7672 7863 8476

1799 2236 2305 2432 2680 3371 3472 3903 3949 4636 4702 4740 5021 6836 7062 8636 8764 8962 10980

5602




313


653


2702 4743 5340 6799
253 5563 8397 9466
253 4416 6884





952 3110

1414


6964 7474 9012 10347



2141 3440 5637 6213 6355 7424 9347 9451 10487 10540


592 713 5133 5255 5259
227 910 995 1076 1569 2560 2650 3562 5741 5947 6288 6909 7308 7352 9838 9919 9945 10148 10326 10402 10487





312 3321 4529 5326 6192 6724 9015 9411 9712 10788 10978 11020
253 516 933 1012 2334 2381 2868 3467 4160 5808 6187 6321 7069 8279 8425 9407 9562 10361
3122 7723 8887 10295



253 654 2056 2201 4183 5116 5787 5883 6799 11306





8192
1629 3862 4504 6155 9475 10766 11027

8743 9112
3247 3318 3915 5063 5653 6038 6527 6778 7204


5281 8290 8424

2721 3348 6429 7217 10606
3373
253 1181 2417 2799 3984 4344 7116 9015 9149 9825 11020

3462 3607 4571 10918







889 1783 2201 3074 4566 5237 5326 5720 6213 7207 7320 9030 9037 9186 9492 9501 10843

1045 1809 1955 3021 3028 3074 4454 5728 5910 7027 7347 7550 8757 8825 9523
165 179 514 782 3137 3906 4368 7302 7709 7897 7921
1655 11065


2124









1923 5498 5930 6981

5272





5889


9690 11217



1083 2618 4799 5116 6519 7004 11039



1091 6213 7647 8677 9015 9537 9695 10162 10807 11015 11119







230 2643 3619 9679







1809 4743 4802 10989
5728 6745





8792





3513



2675 6273
477



11365

1098






8809 8822


2345 2868 3325 4605 7015 8059 8260 9562 10269 11102 11359

5148 7384 8432 8782 8918 9903 11232 11349
10143


8448

223 861 7928 8272 8546

4179 6324 9077 10656 11139





172 727 910 1014 1798 2170 2630 3064 3513 3596 3727 5009 5721 5732 5733 6000 6349 6611 6975 6991 7075 8432 8918 9153 9212 9857 9920 10033 10567 11232


452



2313 10086 10788





2116

2689 2820 3450 3860 7034 7634 8290 10670
4142 8849

253 630 1717 4077 5304 5691 5883 6066 7504 9233 10394 10540


63 100 388 421 454 3065 8181
5814
369 2921 4326 6630 6696 9521

573 6493 9887

2249 5402 5735 6187 8241 9149 9205 9509 10941
253 1571 4077 4142 4339 4373 4702 5904 7493 9825 10555
3720 6355 6740

2417 3373 5022 10052


4797
8792

630 774 4176 10054 10080

10459



2693 3304 5004 5758 7094 10148

253 343 516 3023 4702 4740 7234 8879 9015


952 986 1083 1214 1664 2141 2494 3271 3440 3462 3656 3674 3971 4585 5426 5484 5778 5900 5976 6213 6214 6310 6438 6446 7347 7424 7433 7474 8279 8398 8955 9177 9364 9411 9562 9713 9854 10009 10213 10288 10394 10540 10807 11116

253 2417 2680 3984 4169 6613 8426

205 5728



4425 5087 7348
8918




8792
1744 3663 4947 6859 8849 10593 11365
621
1017 3137 4288 4493 5436 6039 6222 6439 8733 9441 9679 10071 10653




4176 4636 7533 11217





8585
4140 10508 11287
365 1115 1545 1709 1980 4688 5638 6094 6407 7831 8720 8733 10805


1012

8330





2669

630 1792 2387 5304 5470 6326 6502 8425 8888 10408 11020

3159



6964








2111
312 4928 5805 6603 7160 9120





6683 9729
779 1753 4436 5732


2345 2894 7015 7315 7348 8059 9562 9851


350 1585 2249 2259 2301 3928 4734 8012 8213 9562 10143 10361





412 1847 8175


6860


347 408 1729 2820 8003 9149 10839




317 1574 4449 4454 7008 8723 9881 10095




344 6736

5452
10807
7921







7622

1751 2111 2617 4416 7909 9550 9775 10440
10840 10928

1569 6172


39 253 596 4455 4702 6187 6498 7234 9149 9825 9850




3664
307 610 2302 4153 4166 4788 8031 8320 8339 8432 9400 9857 9945 10084 10960



205 3483 5889 6975 7694 10255 10487 10567 10923






1444
3931

10394
4333

3650

4785 6676





477 1923 10052 11102
8111
3376 5653 5954


1569 1570 2639 4193 5732 5786 6139 7287 9252 9796
2619


6320
339 727 1225 1525 1564 1701 1719 2110 2261 3942 4025 4285 4444 5472 5721 5758 5976 6100 6581 7080 7134 7608 8348 8369 8669 9065 9562 10033 10186 10617
1564
1394 3371 4506 7202


1503 1746 1798 1967 2875 3110 3293 3958 4043 5426 7003 8264 9747 10186 10843 11217
2630
8424
10148
8669






1486 7534 9562
2957






7716



1083 2134 7019 9727 10487 11112
389


53 610 1914 4425 4880 5713 6288 6909 8448 10398 11185

253 2464 5116 9149 9464 10054 10394 10540

2654 9823



282


2058 2110 3462 4573 7936

1762 4325 7895

3219





9064
217 234 1783 5758 6192 6612 7247 7892 10525 11089
5141 7712 9766 10606




419 1244 2134 2395 3371 4012 4587 5783 5838 6218 6306 7019 9065 11328
7869
253 4605


129 952 1045 1083 2134 3864 5839 6187 7154 7357 7549 7711 8051 10347 10388 11151


477 880 1923 6844 7796 8502 9205
2805 4884 8059 9077 9149 9850


5707 8486

6467 6527 7348


2643 9729
79 4128 10525







631 1074 1268 2868 3089 4179 4600 5123 5189 5254 5374 6293 6318 6498 7018 7784 8050 8056 8135 9777 10218 10555 10654 11102 11139 11345
5182 5251

935


2212 11371


1414 2134


9104
8627









1715 1736 2618 2680 2855 3033 3411 3971 4427 4529 4584 4812 5766 5807 6544 6844 7003 7074 7160 8376 8497 8549 9562 10766 11015

4386
2514 3382 4587 5816 5900 7800 10540
8390


421 445 2669 3137 6094 6799 7171 8025 8095 8499 8733


2639 2680 4943 6192 10764






5756 10086 10925

5160 11156

1869 5583 6192 6504 7711 10086 10371 10689 10918

1569 2395 4743 5756 6435 6825 8662 10148

4582
159 253 336 340 788 3904 4227 4288 4391 4978 5087 5593 5814 6009 6021 6198 6353 6963 7610 7841 8300 9775 9777 10977 11036 11357
6019 9087
1979 2508 3452 6844 6993 7202 8679 8962 11020

108 217 910 3778 4226 4676 4685 5113 5741 6212 6267 6349 6748 6783 6885 7405 7733 7869 7884 8151 8448 8918 10033 10095 10541 10635 11215
1038 1444 7921
3074 4728 5875 6214 8556 10579
6696

1935 3714 5133 5954

217 302 937 1678 1869 2045 2294 2707 3038 3881 3970 4110 4134 5484 6321 7019 7685 7892 8339 8389 8500 8627 8729 8821 8822 9276 9548 9853 9919 10033 10084 10086 10186 10807

1384 3787 5758 10086

473 1569 2475 2996 3607 4879 5497 5683 5758 6362 6515 6553 6737 6752 6939 7003 7247 7893 8051




1012 2784 6191 10487




283 1498 3225 4011 4842 6187 6788
2419 3663 6527

9762
9364


1113 1678 7424 9984 10213

821 3650 4587 9364 10843

3882


5436 5997
1429

952 1574 2309 4072 6510 7098 8293 11105

167 3846 4506 5281 5767 7062 8047 8989 9316 9766 10301
5373

983 1522 2354 4195 5251 7116 10165 10294

253 477 516 1181 1480 2417 2868 3545 4065 5737 6187 6392 7234 8425 9015 9149 9442 11175








1614 1893 1911
480 8330





588

713 1133 2571 4204 8517 9550 10961
562 1074 3967 4252



4939 5900

2387 5763 8609 9475

5732


1127 1264 1623 2110 2494 3110 3371 3462 3567 3650 3864 3917 3934 4043 4646 4802 4835 5296 5602 6018 6172 6192 7134 7357 8432 8448 9212 9857 10527



2134 4587




1457 10303


6504


307 1098 1366 1574 2042 4454 7550 9043 9288 9329
204 516 966 1168 1181 1191 1839 2140 3023 3371 3391 3570 3832 3985 4391 4526 4702 4884 5287 5556 6113 6392 6454 6527 6537 6884 7074 7207 7215 7534 7909 8047 8241 8390 9894 10607 11223



2195 7217 10741 11180




2537 5273 6700 7139 8608
861 1266 1316 1955 2243 2289 3462 5485 5907 6966 7247 7316 7634 8051 9182 9562 10525
9729 10991 11048
6192





480 6527


3371 5266 5376

6755 8432 9212

4202

4983 9295 10114





3501 4255
11139
3667
484 1989 3219 3411 5840 7570 9972 10763 10985
167 2868


951 994 1799 2233 4416 7058 9149 9181 11371
4436



8363
2617 11359
3846
454 1492 2096 2559 2973 3871 5627 5997 6109 6981 10101 11201


1014 4904
223 861 952 1881 2243 3064 4128 4243 4327 4436 5732 5758 6053 6294 6975 7003 7357 7474 8577 8669 9359 9817 9940 10148 10989


3129






1044 4605 6187 6392 6527 6547 10010





6479

1699 1715 2693 5136 5480 5691 8660 9149 11015




6429
4885 6109 7034 7674 8666 9056 10764





226 1851 2074 4156 5453 6213 8535 9012 9944 10525



3864 4849


4226 10033

6080

253 2417 2744
179 580 1762

821 5326 7080 7347 9367
2464 2500 3318 4011 6525 6527 7116 9205 9509
8517


4142 10708



4161 7211





10970
1762 3663 5000 5373
630 2045 3038 4758 5136 5756 9611 10288
2249
1601

2784 3271 5116 7967 9600


5268



277 516 700 1281 1559 1637 3329 3402 3984 4074 4858 6569 7234 8425 8849 9149 9466 9850 10349 10408 10977 11027







3325 5593 6187 7015 8059 8260 9562 11359


421 2381 4027 8424 9151 11036
1713 5347 5584 7174 8609 10101











4386 6066 7505 8848 9401 10925



9053

10033

307 317 952 1094 1266 1809 2045 2050 3501 3816 3942 4001 4039 4449 7003 7550 7815 9943 10612 11060



5582







149 1574 2151 4658 4785 6445 6799 7906 9848 10361
755 2085 4718 6619 7474 7634 9984





4140 7139 9213 10479



4344 7834 9650
1706 4702 7660 10407
1444 5087





9953 11189

10636
1835 4444 5574 10080 10116 11189

6100


7489 9108

2068
5281 6519
3275







3956 5949

10498


4309


6139


933 1083 3423 6213 6355 6544 7160 8627 9065 9411







2729 7715








11260

4904 5733 6409 10567




8161
1798 6267

3257 4121 5490
122 134 441 578 763 1083 1715 1912 1955 2132 2141 2618 2663 3159 3382 3423 4176 4339 4608 4742 5326 5355 5447 5468 5653 6192 6825 6964 7025 7424 7744 7967 8098 8424 8627 8910 8956 10663
183 3004 7163 7444


1083
1955 2110 4743 4991 5452 6991 8492 8577




527
1237 3033 4391 5501 6471 9655
4114 9233
1052 1612 8219
3129
3712 8175
9461

5602

506 3371 4310 4436 4991 5611 8706
2597 2877 3530 5602 6924 8031

1996




8564
1881 6139 7435 8729










217 1968 4386 5862 5941 6331 6720 7356 8090 10371 10606 11189


8175







421 1157 1847 2121 2260 3807 3913 4416 4636 5087 5268 5301 5347 5436 5627 6187 6547 6799 6884 6935 7533 7715 7784 8038 8056 8059 8110 8300 8411 8517 8544 8550 8743 9077 9149 9628 9753 9775 9850 10101 10253 10481 10840 11109 11293 11355
3631 7262


2913









307 469 847 910 952 1569 1612 1783 2050 2410 2597 2806 3095 3462 3501 4454 4573 5111 5326 5598 5613 5690 5721 5728 5732 5855 6311 7059 7550 7791 7936 9265 9359 9639 9734 9754 10881
266 1472 1522 3225 3683 4065 5259 6233 6527



6537 7234 10010 10941
1379 3453 5930 6187


657 10839

573 2096 2675 4462 5087 5194 5259 5347 5584 6187 6355 7348 7652 8050 8406 8432 10165
2894 4316 5087 5436 5748 8050 8059 8260

266 1271 2494 2617 2726 4890 5301 5955 7116 8270 8660 9562 11180
3543 7117 9953
5281

120 5556 6479

10920

2045 2395 3892 6080 7129 9149 11132

991 1083 1167 1597 1629 1634 1664 1787 2369 3440 4939 4963 6191 7849 8141 8293 8296 9030 9223 9367 9411 10162 10394

2617 8550 9077 10294



1799 3271 9615 11039
1221 1414 2045 3736 4122 4429 6349 6833 7044 7711 9367 10086 10394





169 1012 2429



1967 4758 4879

3074 5988 6391 8293 8825 9611







4743





2820 4462 7749 10010


1366 5728 8398 10095

7608




1052 6278 9065

2643


6213 7792 10213
5756 9451 11306
9847

3902 4743 4879
452 8241 8679 9205 10010 11102

7316 10843
3064 5296


2693 3923 4842 5116 9326 9611
2399 3897 6573
253 277 477 1181 1803 4702 5470 6192 7234 9015 9844 10408

2201



111 1237 1264 2197 3293 4110 6812 8662





618 952 2461 2763 5195 6214 8657 8660 9364

4679 7897


184 1661 6975 9702 10393

1162 4785



412

817 2661 5997 6122






10148



412 817 2970 7018 7550 8612 10009 10863

1839


1191






1809 1851 2784 3567 7711 9562
4333 7129 7932


2964 4605
3056
1393 1486 1913 2483 3548 4384 4842 6187 6873 6958 7858 8213 9099







496
6036
53 727 952 1486 3483 3501 3759 3970 4018 4160 5728 8021 8453 9562 10402 10432 10861 11015
2096 2464 3503 5593 5735 6187
1569 2747 5758 7316 10823

6445 6737 8882 9156 10205
656
10939
421 2683 4377 4413 5193 5584 8591 8896 11091
4243









6802

5683 6975 7791
2887 4326 5565 5756 5944 6066 8359 9156 10837
3471






7806 8295 10861
986 1809 3372 6445 7662 9364 10540 10582



4877
596 933 1715 3259 3568 9030 9205






497 1115 1486 3371 3572 8406 9729 10295 10884
1534 6349 7934 9702 11215
253 381 2483 3328 4529 6392 7069 7234
22 3912 5373 10508
1191

4156 4728 5599

122 727 1746 3028 3074 3110 3174 3271 3378 3971 4444 4585 5452 5453 5826 6041 6999 7080 7316 7643 7747 8467 8500 8825 8950 9012 9030 9712 10323 10327 10807 11089 11217


828 4384 4601 5098 5436 5471 5814 6187 6407 10161
1373





330 2654 3122 7493 8426 9535 10010 10440



165 4161 6081


5304 10394






2591
1232 3411










325 454 631 1350 1483 4884 5268 5821 6981 8517 8624 9149 9464 10101







63 90 5498 5766 11227
1751 6740



1012 4017 7791


2987


183 3967 6770

7726 7936 8723 10251
4328 5116 6066 6213 8181

217 2134 11015 11328




6925




2594 3541 6187 7773

937 1232 1934 2680 2689 2729 3373 3542 3607 3881 4584 5493 6192 6520 7044 7923 8161 8359 8556 8627 8749 9475 9940 10371 10590 10764

4472 4842 10668
3913 6884

3110 9065 9528
282 1457 1778 2464 4247 10763
630 4427 5116 5691 7768 7948 9149 11306
389 5116 7711 10437
183 4252 6320
10132



840 1083 1629 1701 2132 3074 3372 4872 5116 6154 6213 6693 6758 6833 7080 7424 7731 7800 8345 8676 8952 9173 9220 9562 10213 10540 11227
933 2855 6445 9528


2194 10960

7104




6748
10033


1094 2110 5452 7316 9276 10881
4327 5758 6218 8952





380 672 815 966 1254 1397 1416 1753 1892 2439 2464 2508 2943 3407 3566 3667 3726 4114 4391 4848 4943 5048 5115 5287 5457 5716 5767 5807 6113 6392 6471 6573 6613 7062 7104 7217 7646 7730 7796 7898 7909 8241 8376 8809 8823 8836 8952 9475 9654 9813 9823 9861 10000 10043 10086 10241 10301 10306 10396 10606 10980 11223

1730 4161 7897






6409


2147 4326 4427 9053


477 1191 9825 10967






2417 4196 5787 7207 7515 7634 8006
516 656 5642 8290
2689 2851 2940 3881 7687 9149





253 4074 7234 9535
2650



135 3293 8956


4054 4923 5728 5947 9319 9902 10044 10162

5501 9777
204 8052 8823

952 1012 2785 3664 6213 8882 9364
2207 4787 6118 8325 9853 9945
2987 6267 9106 9212

39 274 1603 1896 2260 2387 2417 3548 3897 4397 4413 4862 5129 6187 6692 6740 7083 7310 7458 7847 8003 8426 8525 8718 9149 9205 10088 10292 10502 10516 10977
3330 5342 7139 8476 9316

3656 8348 8729







1719 8474 9562 9734


3449 5259 11365
419 7019 7549 9416
573 8241

3219 4792 7416 9847
2249 2303 5387 9654 10086 10794



7791
3445 4161 6276 7897 8743 10299


7788


1012 1414 1783 2124 2921 3218 3357 4894 5758 6844 7990 9847 9984 9996 10086
2669 6039 6094 6447 7897 8095 8541
3271 9754



253 1896 4945 5340 8425

10707


237


253 769 1706 2417 3360 3808 4529 4652 4702 5301 5387 8006 8879 9813 9825 10052 10967 11020 11260





1681 3423 8583
1181 4858 5808 5989 8760
6435



7427


6118 8603 9651 9751
4153



867 1012 3074 3271 3354 3467 5484 7731 8293 8773 10162 11119





713 6094
2764 3062 4788 5161 8723 9564 9981 10147 10255 10394

972 1808 3130 3136 3967 4137 4368 6094 7055 7681 8213 8743 9188 11202


9065 9751
2747

514 4493 6109 10460 10858



9971



8348



514 4003 6527 10230



1847 5254 6187 10860
1225 3778 4034 7308 10326










1771 5468 7444 8517
1098



4799 5260 8314 8467
3924

9411

2861 4405 5136 7004 7117








1133 4881 9455 9691
1157 2333 3028 3554 4247 5756 5855 6349 7177 7715 8047 8279 8603 9143 10301
1052 4384 6991 7936

53 172 347 2379 4344 5324 5758 6836 7062 7671 8052 8517 8609 8989 9766 9775 11010

2903 9537 9562
79 2066 2110 3191 4658 6450 7991 10463 11348

657

8517





4252
605 8432 9777
347







454 1522 1845 2124 2136 2682 2683 3038 3726 4416 5257 9562 9815 10440 10840
653 1296 1678 2045 2721 3033 4128 5602 8949 9337 10394 10525 10764 10939
1565 6833




7545

4943 8677
7202

5309 5501 6778
1366 1575 2806 3329 4944 6139 6809 7142 7343 7617 7694 7726 8287 8782 9177 9329 9881





6036


1181 1564 1688 2940 3348 3971 4405 4858 4943 5087 6355 6422 6603 7204 7685 8551 8956 9001 11112 11182


3159 3423 4054 4646 4742 4921 5260 5683 6310 7080 7435 7634 9288 9562 9944
365 1308 1646 2179 2791 3326 3712 4142 5309 6359 7203 8330 9384 9455 9555 10366 10884






910 1014 1174 1225 2448 2747 3163 3459 4226 5732 5733 6267 6349 6885 7287 10033 10487 10567 10635 11371



253 1605 2319 2784 3023 4945 6392 6573 11010

4436




1017 2220 5906 6109 7819 8050 8411 9894

313 630 2045 3321 5304 6696 9797
172 4654 10095
8733
4686


1455 1685 2495 3373 4242 5255 5501 6463 8131 8208 8509 8517 8849


4436
994 8192 10403 10982

388 1333 2121 2868 5149 5767 10218 10974 11260




282 498 516 1191 1416 1678 1688 2381 3472 4326 4425 4702 4884 5354 7048 7493 7811 8405 8550 8879 9626 9813 9970 10301 11020

2617
454 2266 2617 3836 5347 6187 8050 8113





290 674 787 1157 1381 2381 2441 2694 2940 6527 7685 7869 9401 9611 9847 10763 11039

9741

226 344 1409 1869 2193 2784 3371 4092 4386 4649 5018 5453 5501 5758 5889 6626 7549 7570 7711 7712 8320 8380 8467 8669 9347 9754 10540 10791 11000
1113 2689 4391 5193 5501 7846







1204




53 1715 3191 4054 5795 7209 8551 9227 10255









6000 8691



1252 2618 5161 8757 10394




2124 3360 5387 7294 8550 8608 8609 8841 9150 10485 10810


602 763 2025 2381 3023 4077 4529 4713 4728 4990 5036 5161 5563 5814 6026 6355 6446 6603 6696 6904 7292 7390 7483 7711 8006 8315 8821 9001 9015 9347 9397 9470 10054 10477 10590 11102


6391 7019 11328


477 815 9205



4140
618 5004


514 6067 6527
169 381 1892 2808 3225 5941 6613 7689 9918

7447
184 610 641 2261 2541 2650 7733 9163 9255 10209



5277 6517 6909


1012








313 2207 3650 9364 9972 11217
2535 5713
3984





9294


5593 6039 6318 6778 6799 6943 7047 8260 9150 9753 11102
3163 5577





573 629 5347 6778 10351


135 608 1060 1144 1724 1916 2243 2654 2693 3009 3153 3271 3379 3566 3897 4114 4247 4344 4416 4640 4799 5037 5260 5826 6134 6294 6506 7079 7644 7646 7909 8296 8517 8779 10241 10337 10376 10590 10652 10689
2460
334 631 994 4599 5584 8341 8517 8988 9562 9850 9993
4344



2643



3318 5347 5436 6527 6770 7444 11102
3892 7139 8743 9729 10629
4122

769 1254 5021 6519 10839



313 4122 9337

120 1638 3892 5252 8523 10985
339 779 2110 2630 2913 3371 3588 4043 4219 4436 5113 5144 5452 5758 5889 6267 6554 6881 7608 8348 8915 9212 9233 9747 10327 10897 10960
8809
253 1022 2744 4626 5811 9149 9775




4924 11015




10479

894 1381 1498 2167 3225 3585 4011 4503 5402 6527 6884 7116 7784 8517 8609 9678 10361










9294



















654 2441 3788 5116 5254 6527 7711



1678 2396 3038 3410 3522 6066 6355 7019 10205
3420 3492 3821 7211 9150


8777

774 2581 8861 9149 9401






1232 1350 1655 1753 1836 2675 3381 3903 3949 4157 4884 4978 5281 5436 6519 8550 9747 10301 10365 10464 11036 11260





7134
1574 8293

226 339 1094 2066 4128 4276 5326 5805 6018 6213 7080 7474 8051 8270 9012 9562 9839 10186



4223

5424

7733

1012 2280





9316
1483 2122 11359

966 1125 3371 3631 4743 5688 6825 7561 8212 9149 11364

3453 4978
425 4636 4916 8406 8561 9112 9149 10759


4176
1094 2596

10347
9077


7139 9284



1083 2100 2806 5331 5721 7059 9054 9243 10199 10783 11363
412 6527 11102

11112
7044 8126 8430 8949 10540 11015



1389 2494 4176 6191 7634 7711 7948





3293












654 2441 2639 2689 5116 5136 7142 7711 9139 10054 11189 11306


516 654 756 2417 5165 5354 5642 8879 9149 11132


4251 4436 5485 5949 6362 7008 7643 8151 9364 9537 10412 11371







432 6094 6276 7817 9491 9729
253 846 1181 3472 9850

1586
579

5347 5436 5584 5748 7348 8059 8260 8993 9851



2247
5872 6267


3130 7709

120 713 2231

6661
589 1847 4562 7784 8509











10963

2361 2462 4054 4928 5161 6819 6975 9796 10394 11020



10590




1719

657 8743 8831




6192 9611
2046 3089 3572 3967 4581 4961 6479 9023 9556 10960
336 7003 7659 9996



952 2784 6975 7791 8339 9682 9974

389 908 3219 4184 6213 8085 8627 9205 9401 10541
5593 6763 9077








779 1266 4384 5721 6611 7003 7008 8448 9920 10510 10972

653 937 1411 1799 2654 2729 3127 3542 3564 3643 3985 5732 6839 8047 9053 9149 9316 9751 10347



1083 4300 4782 5048 5599 7040 7160 7711 7955 8556 10186 10213 10394
62 469 1266 2309 2591 3501 4436 4646 5002 5383 6349 6731 6818 7008 7520 7825 8416 8605 9243 9276 9364 9374 9595 9945 10413 10676




1678 2056 2618 3860 7672 10763

5732


630 937 1715 1912 2617 2855 4176 4326 5048 5116 5439 5900 6696 6720 6924 7510 8556 9156 9953 10054
5556

6964 7059 11059
5556 6293 6297 6447 7634


9586






8213
4316
4176

2248 8548
7059 10084


910 10033

2535 5713 8782 9919

1366 1851 2190 6975 7649 8295 9169 10326 11020
183 1387 3663 4600 5259 6395 6799 7047 10011

6527 8050 8059 9077 10982

4405

3136

933 1083 1091 3110 3271 3440 3759 5484 5900 7166 7711 9972
374 1264 1266 1710 2153 2309 2395 2528 3293 3388 3650 4012 4160 4743 4785 5343 5426 5783 5988 6012 6560 6833 7142 7247 7640 7869 8325 9030 9367 9853 10205 10236 10450 11348

6799

4879 7343 8612






6286



1655 3004 4482 7348 8517




8660
608 2110 4219 9163






6975



9284



867 1212 1574 1783 2309 2386 3073 3664 6191 6213 6406 7019 7324 8467 8763 8825 11328



6624


5726
602 971 3371 3905 4160 5326 5665 6213 6495 7080 7561 7615 7926 9364 10982 11119


8295
1233 2319 4037 5284




163 3023
10969
1854 2059 3876 3892 4140 6067 6091 6137 6143 6583 7139 7708 9005 10479 10555 11102
714 2537 2968 9491 9846





657 2537 3071 6067 6579 9005
432 1267 1431 1685 3220 5285 5342 6144 8039 8113 8476 9726 9729 10105 11365


600 3304 7134 8432 9364 9562












2784 3934 9012


10828
9850

389 1459 2045 2642 3511 4412 4799 5732 6661 7427 9205 10086



184 952 2650 2775 3183 3583 5728 6842 6889 11059





6852 7898


3876 6080

2309







6392
3163 5732 8281







350 2597 2707 4995 5795 6975 10255 10636
4326











3729 5116





10288


4587 5556
5212 10086 10253 11355



2494 3864 4952 5721 6964 8782 9100 10783
279 388 1022 1616 1835 2482 3011 3923 3975 4169 4176 4196 4240 5073 5116 5563 5763 5805 5991 6132 7447 7869 8284 8426 9015 10365 10925 11139
3137



8821
129 133 452 806 1044 1729 2111 2744 2820 3360 3720 3881 4166 4384 4416 5600 5735 6692 8660 9205 10010 10990



4384
1120 7424









5347 8059 8260



5890 8720 8752


199 1247 3704 4599 5436 6223 6439 6884 9550
10758


6755 8398





2044

2294 3394 3849 4214 4316 5214 5251 5272 5683 5805 5910 6825 7003 7512 8141 8360 8689 9220 10305 10320


4240 7239








217 1083 1091 1414 1916 2140 2309 2496 2528 2784 3073 3354 3849 4176 4785 5399 5732 5805 7062 7142 7311 7747 8689 9015 9065 9612 9972 10354 10544
521 3469 3513 3970 4310 9548 9881
5733

1998

10764





6392






4176 9611
3726

1574 2201 2452 2927 3074 6213 7424 8585 9941






4454



1409 3140 3881 6435
3371 4202 4872 8825 9030



3411 5116 8290 9509
308 8763 9301 10276 11349

183
937




63 90 843 1247 1896 2795 4844 4896 5021 5498 7204 8431


265 630 1231 2663 4741 6493 6740 6825 7044 7234 7811 8540 10160 10288



1350 1931 5436 7773 8564
713 2643 4493 9775

2303
454 1923 2630 5113 6747 6939
2465






6850





9327




516 1252 2639 4065 7444 7515 7634 7641 8290 9053 9849 10763


631 3384 4104 5574 5783 6479 7784 8059


2528 3271 4763 7357 9945


2494 6553 6971


1056 2508 2726 3225 3366 4065 5402 8550 8737 9053

412 6527



3360
1038 4140 8476
4052


282 334 516 1116 1191 1571 1629 1783 1799 1820 2065 2301 2693 2806 2896 3118 3305 3404 4142 4273 4333 4585 4702 4772 5333 5574 5598 5778 5805 5991 6080 6081 6082 6144 6471 6630 6737 7028 7139 7152 7493 7869 7999 8272 8425 8426 8876 9012 9149 9392 9442 9679 9729 9930 10052 10209 10218 10254 10971 10973 11153 11189
217 2289 2395 4160 4872 7019 7892
204 1090 1253 1397 2381 2669 3726 4529 8591 8773
3970

1561 5268 5270 6353

2309 5326 9392 10320
277 573 2784 9149 9970 10433
8743
2868 4271 4348 6545 6643 8397 9535 9747
1150 1681 2045 3949 4326 4899 5260 5733 6661 7117 8789 9053 11131

1133 3351 6395 6439 10608



3074 3958 4436 6581 9015 10807

396
253 1799 4472 4858 6407 11362


3259

7936
8450




253 1923 11027 11132

3371 8181

3892 8025
253 2417 4348 5254 6392 7234 7742 9149

290 7923
2855 4219 5875 7532
1678 1835 2334 3309 4730 5116 5501 5787 7634 8424 9459


575 4884 5087 5257 5259 5593 5659 6187 8609 9347 9550 9562 9690 9850
6067 10839


3440

580 2856 4735

5688 6223
2017 2045 2514 2642 3707 4584 7316 8950 9611 9847

6018

4380 5436

129 5485 7209 7313 10295 10676










1221 1414 2134 3073 3418 4238 4386 4983 5944 8345 8772 8821
5733
1076
6450 6685

2488



2478 10071
1381

516 1706 3808 4702 4741 5470 7207 7493 7634 9775 9813
388 2116 2898 5087 7348 7424 8775 10960 11182





2650 3942 6975 9682

7709
176 952 1256 1414 1612 1783 1809 2110 3588 3656 4327 4658 4743 4879 5721 5889 6294 6362 7003 7357 7435 7549 8320 9163


10487
6445
1125 1232 2528 3881 6321 7747 9367 9611 9754

3272

2281
976 1191 2680 2955 4740 5136 5287 6173 7565 8047 8726 10213 10301 10540 11260



9679
10911
3572




1048 1538 2259 3501 4454 5795 9595


4649


4289 5342 5373 5501 8849 9455 9555 10508 11365
4316 5347 6527 7784 8059 8135 9077 11102
6971 8577 8729 8756 8915 8992 9212 9243
514 2856 5229 5373 7897 9878 10868





10593


307 779 1832 1955 2110 2259 3028 3483 3513 3935 3954 4384 5113 5690 5721 5855 6626 6991 7545 7936 8004 8219 8237 8348 8448 8669 8874 9024 9106 9163 9225 10148 10476 10881 10960 11215

573 2260 5347 6283 8181
4344 4702 4751 4858 5287 5354 8411 8760 9556 9940 10086 11027 11217






3159

53 567 610 1329 1366 3272 3501 4166 4943 5161 5598 7733 8874 8918 8992 9548 10576

4436






2855 5116 10487
4110 6839 6878 8500 9177 10209 10540






2066

8589



388 5347 9532

8025 11102


2379 3619 4884 6392 8544 10759 11218
516 2381 3023 10540 10982
369 2125

1753
9391 9984 10877
4128 7549 11082
2249 2464 4503 6200 7207 7424 8467 8809 10807





2591 3808 4702 9015 10052
215 3752



7019


1225

516 1181 3023 5301 8512 10052 11132

2417 2784 7131 8426 10143
473 986 1783 2243 3607 4073 4310 4802 6435 6450 6927 8110 8474 8814 8950 9814 10577
2294

253 477 516 1799 4348 10668

432 2301 3004 3478 4288 4333 4380 6039 7165 8327 10150 10982 11365
10275









3163 8281

484 2820 8591


2806 3462 5009 5713 5963 7520


9650


8517

867 1366 3978 5598 7176 7791 8320 8620 9586 9945 10402 10628 10713 11020 11059
4427
4904




7138

8789

683 952 1256 1719 2381 3567 3650 4436 7474 10186 10388











1308 3541 5347 8432
6527 6778 8397










490 1012 2097 2896 5326 10209











3023

4043 4255 4944 8432 10084

6187 6258 8012
6139 8918 11371

618 1551 1738 1783 2763 3074 3607 3881 4555 4645 4872 5326 6435 6445 8316 9228 10166 11008

6966


6519
1083 1105 1414 2467 3462 3970 4858 4879 5216 5326 6906 7549 7936 8612 10510

8755


6148 7003

1429 1730 1911 3065 4161 4679 5997 7897 8517 9679 9816 9887
344 764 1083 1533 2460 3110 3790 4276 4646 4678 4743 4799 5602 5721 5758 6041 6226 6991 7532 8270 9082 9713 10205 10288 10989


253 381 1834 2417 6200 6273 6392 8426 9149 9562






1414
5268 5561 6981 10595
713


9077



2111





5326 10320








631 4142 4770 5198 6039 6527 7709 8025 8284 8476 10555



951

421 3247 4003 7709


579 3423 4273 7474



11232
419 592 2060 2643 5753 7117 8467 9945 10701

1713 7349




4678 8627 10209
1395 3225 4065 4169 8241 8591 9850



6139 9904

380 452 516 596 1181 2417 2617 3291 3373 5862 5904 6540 7283 7911 8031 8809 9813 10052 11020
1366 6686 9054

630 3204






2141 4169 5838 6233 6547 7207 8561 9215 10351 10365 11014 11180








4161 8733



388 6187 8550


3555






2259 3073



8679 9972

5450


8624

6067 10888
9139



527 6019 7641 8380 8516 9219 9655 10969


610 1065 1708 2560 6491 6819 8625 10852




1184 8113 9729

6533
4925
307 1717 5805 7424
2851 9655 9847 9993 10263
971 4339
840 3664 5161 5326 5750 5976 6213 7643 8345 9225 10996

8060














2096 6187
2508 3452 3554 4136 4848 7217







79 344 1955 3934 5721 6966 7316 7549 7936 8316 9848 10525 10989




2856 5373



477 6447



4646
4743
6039
253 381 1799 3951 4842 5340 6187 6297 7083 7116 8426 9149 9850 10750 10977



2683 5574

986 4177
934 4495 4961 5436 5451






516 1748 1846 5354 7234 9088

1073 5373
3259 3271 4012 4872 4921 7347 8825 9651 11008

4799 8660 11015

6971 9065 10881



1137 8517 9775


1381 3033 7044

1244

1045 1634 1783 1885 3218 7003 7305 7936 8237 8706






631 1847 3892 4408 6081 8050 8059 10916
4743
11355


536 3129 3172 6115 6583 7897




425 937 952 1012 1083 1715 2381 2441 3225 3304 3467 3650 3971 4077 4585 5161 5168 5574 5805 6172 6355 6630 7549 7703 8660 8677 8821 9001 9213 9411 9944 11119
1740 8175 9088 11020
5593 8050 8175





9156


714 782 2132 2796 2805 3129 3406 3871 4161 4682 4925 5273 5916 6039 7131 7139 8212 9754


7791
4327
2194 2464 2784 9466




737 2186 7048 7292 11008 11119
477 1191 2868 3923 5808 6192 9650 9777 9778 10052
1704
3118
1267 4140


10567


2304
2096 2384 4472 8241 8609 9447 9678 10840

1247

521 1783 6685 6807 10861




573 4877 5653 9077 9205 9960 10010
253 381 2193 3219 3903 4462 4529 4635 4797 8284
2577



1486

727 1012 4728 4911 6214
1546
4529

465 847 861 868 1783 3153 3816 4073 4128 6612 7520 7791 7991 9024 9065 9802 11349
910 952 3501 4454 5721 7008 7343 8061 10033 10255 11371

347 6326 10396
4384 7357

4963
709 10939
346 1569 1955 3459 4943 5728 6684 6778 6964 6975 7308 7316 8992 10358 11074






1191 2868 3382 4702 5165 7488 7634 9872 10052 11020 11189

3832


952 3501 4018 6685 10255 10861

2006 9281

920 1098 1101 1574 3388 6736 7343 7550
10010




8952


536 1074 1772 2364 2537 3004 4104 4600 6143 7681 11365

1083 5778 7337 10843
1083 1715 2259 3272 3374 3656 4454 5721 6818 7550 8136 9595 10255 10828
1162 1414 1678 2309 2639 3881 4327 5493 5889 6178 6497 6661 6676 6800 7424 8345 8556 8814 9064 9367 10213



3219


3596 4904





290 653 1254 1416 1923 2765 4996 8175
1799 3023 7315 8879




10843

7545 7791 8612 11012








477 1955 5230 8175 10361 10788

2555 3704 7709 9679





9847

1729 1896 2820 4384 7926 9766 10010
700 889 1629 3074 3849 4327 6041 6213 6496 8627 9030




2358 4429 11015
2259 3954 10084




8244

1569 5822 7766 10745

653 1934

350 1083 5875 6041



5732 6213 9411 10047
2560 4899 5733 7308


3122

307 491 868 1955 4054 4444 5010 5143 5200 5205 5326 5598 5721 6213 6527 6606 8915 9012 9734 10186



172 1097 1574 1783 2806 3645 4952 7617 11371






254 9945

3368 8679 8792
630 4425 6192 6729 7858 10973
727 1065 1094 2455 2642 2707 2987 4039 4802 5733 6349 6611 6854 6971 7094 7991 8360 8915 9106 9153 9723 10160 10184 10199 10276 10412 10972 11040

8836
5133
9651
5326 9562





240 994 1753 2111 3348 3360 3720 4416 5375 5894 6141 6392 6429 7356 7689 9766 9823 10433 10840 11010
6844 8315





1746 4872 5618
3567 3934 9151 10828
1923 2447 8222
571

1384 1394 2729 3881 6173 8315 9861 10763














1113 2693 4176 5691 6125 7708 9149
4961 6109 8025










3351 3967 5435 7015 9491

5944



889 1715 2201 3523 5484 9037 11112



253 2057 2417 2784 4858 8937 9015 9149






2044
2141 2797 2803 5094 5805 6213 7962


5165 6747 7357 8763 9945

6589
867 868 1083 1647 1851 2618 2877 3547 3934 4444 5720 7446 7493 7550 8789 9150 9537 10209 10525





96 1715 4446 6858 8110 9037 9243 9359 10861

191 516 3808 4641 4652 5165 5642 8879 10607
2537 4416 5501 5954 10858 11365


514 1443 1974 2739 3129 3367 3906 4368 5916 7920

183 253 421 1017 1115 1382 1394 1900 2643 3371 3698 4636 5436 5997 6533 8517 8743 8894 9679 10165



5347






1098 1534 2524
7791 8295
9464 10840
1881 2307 8110 8360 9848 10347
2868


600 908 1232 2259 3074 3118 3372 6445 9205 9825
480 1904 2323 2419 2488 3663 3745 3892 4333 5123 5182 6067 6081 8128 8330 8350 8738 8894 9284 9562 10629


6100

952 1534 3225 3513 4788 5475 5598 5713 6375 7138 7869 8295 9276 10412 11371
1083 5484 6178 8472 11112
5399 6315 7003 9691
133 347 1416 3219 3720 3736 4416 4626 5021 5584 5763 5798 6223 8679 9712 9763 9861 10361 10668 11170

4983



189 5728 6047 6059 7287 7424 8782 9225 9682 9981 10095
100 217 937 951 986 1167 1403 1436 2045 2902 2921 3038 3054 3219 3271 3290 4092 4366 4636 5136 5168 5439 5490 5783 6187 6355 6799 7348 8047 8475 8510 9149 9170 9392 9823 9969 10253 10371 10810 10843 11015 11270
217 313 3838 4939 5032 5684 9214 9611 10839

1360 1655 4881 4890 9338 11202

7138

1237 4357 9087
3011





7139 9213


821 937 1564 4743 5601 7019 8486
6844
1751 4416
133 2439 3219 4416 5324 6471 9475 9847 9861 10511 10763


4904 6684


1012 1824 3305 4728 4943 6661 7019 7347 8274 8293

1771 8025


4925






3259




564 2806 3095 3410 4403 4952 6840 7343 7446 7791 8773 8799 9734



2881 8315 9455 10770

9491
952 1708 1888 2650 5733 5830 6177 6349 7176 9796
1704 8836










1120 3440 6214

388 480 3219 3262 4370 4666 5180 5182 5881 6309 6324 6527 7200 8175 8186 8476 8815 9729

90 2669 6039 6049 6094 7029 7534 8523 11295
1851 2267



253 2387 2591 2784 4348 6273 6613 6620 8426 8660 10207
5949


2946
713 1772 2390 2607 6527 7204 8025 8284 11139
1108

1832 3645 8918






7435 7608 9734


5436 8330
5209 6154 9364
6214 7357 8757 10266 10320 11020



3381

3371 3707 4646 4658 6148 7003 10636 11348


138 2877 3664 5805 7373 7643 8360


8861





1569


427 1431 1704 3572 4877 5954 6115 6143 6439 7745 7817 8564 8849 10143 10653 11365
3489
6540 8549







8723

3027


334 828 6195 8059 9039 9053 10961
9984




234 2011 5889 7520 9734
109 307 1083 2065 3272 3567 4742 5805 5833 9243 9364 9562 10510




727 6819 7523 9586
1162 2122 3053 3259 3490 5627 6439 9823 10113



8296




1614 7897
290 425 630 654 1389 2280 2429 2680 3038 3192 3382 4427 4444 5036 5116 5558 5756 5862 6192 7424 8161 9065 9149 9281 9401 9505 10058 10072 10263 10394 10763 10925 11306
134 700 1083 1851 2411 3462 3896 3971 4012 5009 6213 6397 6445 7474 8773 8878 9024 9030 9225 9562 9886 9936 10674 10807
2367 8300 8821 8894 9149 9775
4384



1549 2244 3371 3572 4161 8431 8887 9249 9491 9995 10479 10498 11365



9337

654 1394 2045 3789 5758 5991 6519 7763 10992
6525



240 1254 1978 2594 2784 2787 3504 5989 6187 7062 7068 7444 7458 7493 8422 8425 9277


1052
477 529 3381 3407 3570 4247 5457 6844 7689 8809 8937 9015 9149



5748




129 4183 5501


5989



5094 6213 8952 9156 10186

4176

514 1267 2537 4140 6067 9103

4240


1394 5485

6595 7549 9451

2266 5347 9532


3427 3572 5907 6039 6318 8849



201 564 1012 2249 2312 2592 3021 3225 3229 3501 3938 4011 4329 4436 5485 5682 6195 6591 6678 7343 7446 7485 7550 8554 8556 8609 9205 10160 10307 10413 10881

369 787 1680 1947 2085 2693 3440 4529 5036 5540 7134 7823 8424 8624 9139 9401 10054 10080 10590 10941


5257

167 253 425 516 573 672 1704 1799 2056 2417 2694 4728 5563 5593 5816 6273 6925 7207 7800 8290 8426 8435 8775 9088 9139 9149 9575 10540
6527 11180 11293
1052
5113


253 277 2464 4605 5470

6800



302 4219 6450 6611

425 2581 2639 3069 6191 7711 9149 9847 9853 10764

8296
388 3871 4688 4884 4978 6479 8700 9850 10440
10347


3159
167 2266 2464 4626 4890 6329 7116 7441 8181 8517 8591 8609 9150 9850

9284
371 573 1206 1522 1839 2096 2617 2784 3225 4065 4137 4169 4195 4196 4472 4626 4842 5735 5798 6527 6547 8012 8181 8609 8821 9021 9532 9782 9815 9850

9747




5436
9718
120 1017 1045 1422 1601 2680 4053 4743 6799 7371 7545 9106 9327 9996

290 1678 2388 2429 3597 4326 4758 6504 6812 7723 9611 9847 10540

282 312 2141 4017 4782 5805 6340 6520 7160 9149 9347

9682 10393
5944



307 339 478 727 1052 1128 1185 1480 1840 1851 2065 2656 2672 2806 2946 3028 3388 3515 3607 4384 4443 4449 4454 4624 5161 5747 5855 6053 6450 6524 6554 6626 6685 6971 7059 7139 7142 7435 7545 7608 7791 8295 8348 8360 8448 8482 8729 9163 9364 9416 9562 9595 9857 10033 10285 10753 10783 10828 10843 10861 10881 10989 11095





381
4436
135 721 1569 1989 2309 4039 4128 4326 4743 6181 7991 8270 8360 8500 9064 9149 9367 9847 11348

4134 5753 6519 9940 10295


779 986 1503 1955 4436 4743 5914 6192 7138 7308 8320 8577 8918 9080 9106 9276 9847 10327




1266 1503 1798 2110 3300 3483 3935 3970 4436 5113 5949 7007 7094 8004 8432 9212 9416
1528 9397
8072
9150 10465




2121 2167 3923 5259 5263 5653 7784 8397 8609




388




159 502 2383 3391 3913 4416 4626 4845 6326 6447 6454 7294 9336 9766 10083 10396 11010




9232



9754
3089
6447 8741







7936 8492

1431 2543 3326 4528 4600 6187 6683 8175 10884

3839 9338
10320






347 2820 3548 10433 11180
1244

1571 1748 8425










5638 11048
9490







1799 7404 9464 10018

4493 8091
290 1157 1231 1678 2303 2508 2729 3373 3923 3932 4386 4579 4943 5989 8223 8390 9149 9156 9475 9650 9813 10086 10301 10764 10839 10985

8320


6213 10487

120 8750





774 8425


7074 10394



629





3650 8548



8390


631 2973 4943 5206 5672 6778 7784 8135 9562 9992 11359


11351
1264

573


431 1083 1256 4907 5036 5116 5136 5805 6321 6731 7160 7424 7768 9367

1612 2110




10978
477 1150 4529

3004
1703 4943 5073 5402 6187 6527 8241 9149 9205 9970

1678 2381 3423 5260 5805 6574 7427 9337 10590 11015
1414 2309 3371 3881 4872 5707 6661 6881 9732 11217
1162
327 1629 1681 1738 1787 3213 4658 5195 5632 7142 9063 9064 9411 9562 9766 9847 9972 11217






9056 10849




2786 3247 6187 6318 8059 8260 8736 10555
713 1655 3065 3967 4493 9491
1056 2312 4759 5766 9894



1350 1631 1861 2247 4397 4648 5593 8679 8841 11180
9920

2045











910



4436 9747

129 274 277 1044 2808 4169 4413 4416 4472 5814 6187 6620 7808 9149 9205 9850 10010 10990 11010








3923 8059
1191 1436 2096 2899 4142 4176 4884 5347 6873 6917 8737 10351


7139 7211
2784
4136



1150 3650 5707 6192 6833 6966 7019 10450
339 1094 1783 2642 3028 3664 3829 4273 4743 4802 5452 5484 6213 7316 7549 7643 8051 8264 8293 8345 9065 10186 10388 10540 10745 11000 11015 11070

277 4605
2693 3486 5116 9483 10206
8750

2508 4136 9650
4872
307 564 1101 1111 2664 6685 7343 9043 9054 9225 10881 11116



226 868 1967 2597 3462 4273 4587 4879 5885 5950 6187 6213 6435 6438 7134 7154 7247 7320 7643 8369 8474 8535 9012 9080 9182 9225 9562 9943 10199







445 514 714 4240 8331 11346




6192

9464


1708

3664 3719 4799 5783 7716 10487
2209 3663 6067 7139 8450 10558


3892


1708
2666 5464

1444 4408 6770 7275 8517 11239

5930 11359




172 7003 7094 8432






966 1191 1394 1411 1528 1799 1979 2195 2508 2680 3371 3452 3504 3554 3949 5115 5543 6421 8989 9813 10967 11021 11260
9151 11139
7047
8918




232
1043
1065 4904 5733 6036 6975 8083 9702 11074
2729


573

1968 6066 6191
8577




9327

897 8264 9014 11349

302 1710 2307 2729 3930 4202 4391 8161 9064 9581 9589 10213 10770

3411 5769 6429 9087


4884
976 1486 9550
3420




380 1191 1411 3472 5642 8424 10839
3321 3452 8087 9654
2045 2642 4310
595 933 1083 1181 1204 1316 1701 2050 2161 2186 2896 3074 3462 3664 3830 3872 4193 4425 4444 4449 4646 4785 4812 4872 4943 5326 5480 5484 5598 5721 5778 5805 5900 6213 6349 6445 6685 6724 7080 7510 7909 8316 8677 9205 9225 9364 9562 9848 9943 10031 10487


8669




727 3504 5721 10510
7549


861 5577


630 774 963 1912 2151 4427 5136 7443 9149 9156 10054 10394
713 4601 8059 8135 10890


9037 11119
431 3354 5062 6355 9015 9156

11039




210 571 3698

3371 5930 6192 9650 9984 10000 11021
9392 11010








3027 4429

1162
1553 1967 2214 3074 3271 4743 5195 5326 5997 6213 6939 7357 7731 8141 8556 10540 10807 11015
8090
2461 8459 8660
53 610 1534 2535 4166 5566 6139 6581 6755 6885 6975 9689 11215



774 2482 8411 9139


5259
9053
1400 3923
222 6192 7003 8821
1083 1296 2576 2784 3159 3664 3851 4678 5900 6213 6603 8556 10209 10213 10807


491 1316 1783 3567 4054 4646 5598 5795 7550 7643 8264 9169 9288 9359









937 1678 4743 10086











9294






7204



1783 7893 9886






327 1136 1138 1729 2193 2249 2383 3832 4416 5527 5732 6200 7570 8363 8812 8836 9556 10810

3318 11153
4472


253 516 654 2417 3808 5995 9139 10052 10349
1885 10347








653 966 1923 2515 2639 3391 3504 3656 4114 5193 5324 5989 6993 7634 7909 9053 9535 9984 10301



2464 6527
5805 6747 7672



4991 5326 5721 6053 7791 7906 8633 8773 8992 9860



319 564 847 952 5728 7694 9225
490 710 1111 2395 3305 3372 3650 3849 4072 4585 4653 4743 4996 5587 5758 6213 6445 7019 7160 7892 8500 8603 8822 9364 9562 9972 10320 10361 10597 11217 11363




2293 3922 4288 6114

491 861 1719 2151 2186 3078 3462 3656 4658 4991 6606 7025 7510 8264 8551 8922 10327 11246 11348
779 1601 7007
2590 4179 5087 6527 7015 8059


454 788 994 1638 1799 2345 2680 2868 3414 3541 4408 4636 4733 4916 5087 5096 5347 6187 6471 6884 6935 8031 8059 8300 8432 8544 8609 8651 8842 9112 9145 9149 9150 9509 9562 9690 9753 10218 10819 10840 10990 11010
1875 8613 9397


8836

713 1175 2124 4179 4413 7348 8059 9690 10810



2494

3318

32 573 7788
3382 4034 4923 5171 5728 6100 6267 6355 7347 8448 8468 9252 9388 10326 11294


9713

1850 2036 3598 3978 4199 4712 5713 9682 10255


1094 4571 8410 10086 10843


653
3930




1115 2899 4884 5259 5436 8894



9416
2642 3849 5838 6192 7004 8556 8729 9713 9971 10540 11015

2455 4899
2813
3786 3892 4207 9213


1473 2987


5732






8550
1776 2134 4177 5888 6218 8324



253 1688 2417 2626 2639 3513 3942 4202 4529 4562 4582 4743 4945 5340 5399 5528 5593 5835 5874 6429 6525 6799 7520 7723 8426 8467 8874 10764 11278
1097 2630 3645 6685 7059 7726 10861 10881
2500 2654 4943 5894 6844 10839

972 1119 1429




307 1024 3218 4043 4219 5453 5758 5835 6435 6515 6611 7003 8110 8432 8950 9227 10745 11348






6676

232 258 3004 3839 4093 8561 10459

344 2134 3940 6214 6495 6661 7080 8627 9015 9411

5130 11180
6778 8059
100



7340
11119


1076 10033


388 592 788 1704 2868 2898 4408 5087 8300 8517 8591 9850 11139




431 1826 3440 4171 5254 7711 8556




861

1113 2729 6192
109 564 710 847 861 1052 1101 2050 2065 4867 4879 5326 6747 7343 7532 7791 7855 8339 8612 9359 9416 9562


6636
3191
215 994 3984 4872 7093 9086 9212 9680 10764



1911

3028

1409 2740 10634




79 223 868 1083 1366 3588 4327 6047 7694 7791 7893 8345 9049 9359 9886 10209 10861
4039







2693 7075 7749 8689


788 1044 1191 2799 3318 4169 5165 5682 5948 6326 6547 8609 9088 9205 10973
1397 5023 8390
5022
5566 6818 7492 8448 10095 11059

8901
8341 8658



5098
4177 10579



327 2729 4326 4386 4571 6192 7074 7160 7427 8006 8556 8728 10540 10823
2784 6213






484 657



253 516 705 1181 2417 3027 3038 6497 7570 8932 9813 9969 10042 10052 10371 10376 11001



11119


822 7128 8279
9887





4763 9205 9337
1020 1247 10101






9112


3219 4582












11365
90 177 199 1133 1135 1422 1704 1980 2096 2121 2122 2639 3414 3453 4881 4884 4978 5268 5561 5627 6039 6223 6224 6320 6353 6407 6721 8131 8523 8609 8700 8743 9149 9816 10161 10840 11285 11295 11359






4122 4364 5224 6676 6825 6833 9033 9228 9581 10213

4884 8050

199 2312 5031 8544 8743 8745 9691 9850 11109 11285
9149






8517




385 2110 5216 5721 5970 6686 6971 7279 7550 7782 9754 10783

1097 1708 2806 3329 3501 4394 4454 5598 5690 6807 7343 7420 7617 10402

253 516 2417 4702 6192 8603 9139 9850 10052
327 774 994 1237 1296 1603 1916 2193 2367 2388 2389 2395 2851 2940 3038 3204 3219 3309 3411 3522 4326 4571 4649 5136 5221 5439 5615 5769 6019 6066 6471 6493 6504 6799 7034 7117 7685 8161 8192 8296 8314 8556 8583 8627 8729 8800 8861 9087 9100 9149 9205 9655 9847 10086 10213 10376 10511 11015 11111




7708

132 1038 1655 4161





2464 5584 6547 7348
177 4965 9077


183 536 1224 1713 4057 5160 7029 7819 8561 10805 11295


1869 1912 2581 2940 3472 4176 4571 4758 5116 6187 6192 6344 7065 7450 10211 10969




253 516 1624 5769 9739 9834 10052 11010 11357

595 4039 6747 7791 10009
302 1014 2806 6349 7869 9857 10033



1352 7343
2675 5251






6213 10054 10928 10941



1697 5133
1045 2535 2721 2729 2987 3513 3790 3881 4436 6349 6435 7357 9920 10881

215 5900 8821 9001 11020

2943 3949 4125 4136 5021 5807 8825 8874


3881 4176
7552

4899








571 4240 8350

1073 1656 4161 4240 5257 6413 8564 9453 9806






1655



2266 2694 4858 5254 5642 7565
2121 5395 6981 10161
2207 4587 4785 9945


3698 8852

4039 8729




234 4039
631 4562 6479 7788 8050 8056 8135 9753


4266 8689


3214 7827 10764
5257 8038
3259 6435 10525

1016 1157 3656 5111 8094 9338




5116


419 908 5094 10344

6315


3492 6476
204 4001 7083




6349 9702 10033
10412
1264


201 780 8517 9205 9562




8874





272 421 1656 1751 3259 5149 5257 5347 5628 5813 5889 6660 7796 8064 8181 8251 8544 8609 9149 9644 9850 10086 10460
2805

100 396 1655 2559 2851 3407 4983 5193 6474 6825 7015 7505 8376 8505 9364 9775
713 1224 2669 5753 6039 6189 6770 8131 8988 10295 10708

334 2617 3414 4389 5182 5213 5251 5593 6293 7015 7158 7773 8031 8192 8523 8651 9149

432 592 976 1224 2111 2121 2478 3065 3414 4462 4795 4916 5753 5930 6134 6439 6498 7245 8095 8406 8523 8561 8988 9260 9426 9988 9993 10071 10486 10804 10805 11048 11180 11205 11362
2576 2642 2784 3382 4584 6904 7424 7975 8780 10213


4462


1820
721 1094
1919 2096 2345 3376 3675 5087 5347 6187 6471 6762 8031 9077 11102

3376 5962

1283 3259
1808 3892

9702

2751
580 657


129 1250 1748 1997 2126 2868 5593 8290 9861 10925


3122
3137 5954

253 1799 2417 3472 3504 7570 9834 10577 11132


6173





1783 2190 5566 10326 10828 10881




2096 2124 2508 3564 5767 7018 8679 9535

9225
169 709 916 1384 1457 2326 2663 6066 6122 8410 10213 10663 10689




340 562 2629 2643 8523 8737 8849 9717


6799



976




10347
9137 9156

2594 4196 4858 7159 8424 8636 11020
5461
339 419 764 1052 1094 1231 1264 1895 2045 2110 2877 3118 3378 3631 3650 3656 3689 3790 4039 4059 4743 4785 4867 4991 5426 5721 5758 5889 6178 6181 6612 6731 6784 7062 7520 7716 7815 7892 7974 8316 8348 8360 8706 8782 9364 9543 9848 10205 10347 10361 10636 10807 11217 11348




2913

3371






1204 2500 3832 4943 8087 8223 8809 9475 11153

132 2465 3137 3489 5436 7708 8340 11365
3074 6213

6353

484 496 803 1056 1133 1935 2096 2121 2683 2781 2795 2960 3240 3490 3503 3536 3619 4146 4377 4636 4884 5251 5268 6395 6439 6935 7715 8213 8441 8660 9149 9464 9532 9775 10253 10840 10895 11355

8662




167 653 1064 2680 2943 3504 3846 6421 7202 9053 9475 9650 9834
2045

8025















1749 1911 2304 3489 3492 3821 3848 7211
1655
4065 8936
120 1820 6080

217 6608 8141
6321 7444 10840



3028 9651 9945 10525
5783 5925


2483 2508 2726 5731 5808 6392 6740 7018 8549 9015 9059 9149 11180




10991

7967 9423
5194 9782

5721
10376
3271 4168 4943 5900 9140


548 1393 2820 3360 4582 8003 9766 10083 10502
183





8823











8660


2883 10218

1414 1574 3074 5326 5805



9847




4104
258 408 713 976 1431 1743 2096 2122 2312 2795 2868 2960 3247 3325 3427 3839 4142 4265 4423 4916 5342 5593 5997 6479 6778 7171 7239 7325 8050 8260 8431 8517 8743 8981 9039 9150 9338 9993 10104 10218 11359 11362


425 3038 4176 5116 8773 10054 10451 10925 11306
227


9850



2045 7311

9400
3765 7139
3839
307 727 1510 2050 2309 2410 2806 4646 5805 6058 7207 7420 7754 8474 9004 9562 10066 10510
952 1881 2309 2693 4952 5602



2417 4348 8426 9149 9850


6613
5325


967 4686 6799 10764



2045 2571
8398
1457 2195 3452 4397 5820 6297 7898 8937 10301 10960 11131
2312
1569 7138


4166




338 1045 1869 4743 9241 9524



313 1083 1414 1715 2528 3073 4110 4167 4646 4743 7292 8822 10086 10652 10823
79 419 506 621 687 986 1809 2946 3429 4373 4384 6036 6553 6554 6854 6927 8577 8782 10525


8212
9825
135 283 971 2044 4176 5816 6520 6808 8126 8314 8424 9702 9754 9763 10092 10165


2381 3971 8627 8789



1719 6213 7025 7520 8588 9562
1281 2353 3318


653 1181 2056 2457 2629 2669 2693 2694 3411 3489 4137 4357 5704 5807 6429 7074 7909 7932 8042 8192 8729 8792 8848 9053 9459 9478 10606 11077

















10205







4842 6039 6559 6799 8200
4943 7788 9894



9953






253
4386


4702


10148
7681








201 1799 2128 3039 3042 3213 9894 10977

4326


118 3675 5087 5748 5930 6187 7015 7788 8059 8517 8533 8981 9850 10061 10860 11102

1205 2729 3219 4391 6118 7504 8679 9834 10241 10306 11260

2280
4788 5024 5296 7008
976
9327 10843

7308


8325
281 1989 3351 3371 3836 3881 8284 8795 9138


2775 4755 7966


8809 11036

650 1959 5954
713 1699 5732 7211 8743 9523 9679 10840
1056 1935 2121 2266 2786 2960 4169 5129 6134 6355 6573 8609 8842 9149 9628 9678 9805 9806 9850 9851 10351 10361 10668 10768 11180


4872 6975 10371

7458 7715 8517 9149 11293

10320

484 496 527 529 1136 1704 1931 2260 2774 3012 3414 3883 4391 4605 4943 5257 5281 5436 6134 6392 6407 6533 7534 7715 8284 8517 8523 8544 8609 8775 8821 9149 9850




172 339 579 697 910 1014 1094 2110 3371 3513 3596 4039 4166 4743 4802 5113 5721 5728 5758 6178 6854 7138 7316 7991 8320 9065 9548 10033 10525 10636 11359
2307 3027 7134
3225 6786 6971
4193
1083 1193 1783 2063 2066 2618 3664 5453 7196 7520 9364 11363

5989 8737
515 7681





2065

2110 8612

774 5116 6233


4072 6696 11027 11162

880





9391
1847 2096 4316 5087 8050
5251 7315 8432



4587


253
9441
1221
183 1444 4517 9260 9447


5813 6010
167 652 2440 2943 4136 4740 5193 7062 7808 8390 8486 9475










1247 1561 2045 3922 4462 8591 8609 9691



10258
1094
3414 6355 8779





3118
7277





4562 10839

8864 10295
7817

1083




4384 5021
952 1719 2279 2642 3259 5750 7643 8051 10989
4177


226
749 2896 3422 9894 10990

2110 3501 5113 7893 10103 10199
806 1384 1869 2388 4092 5732 6019 6297 6519 8726 9847 11015












202 5501 6520 7015 8760 9053 10577


952 1083 1641 4585 4645 5778

7550 7791



172 952 1601 2764 3062 3588 4166 4904 6777 10095 10326 11371

6192
253 380 2417 5904 9331 9825

9156
1065
1264 4128
205 307 339 517 1366 1569 2110 2913 3021 3218 3462 3501 3664 3816 3935 3970 4039 4743 4751 4867 5111 5326 5397 5598 6041 6191 6450 6755 6991 7003 7532 7608 7694 7782 7893 8237 8348 8627 8723 8882 9043 9163 9538 10033 10084 10276



10394
3117 5758

129 350 1266 1317 1418 2110 2170 2259 2455 3163 3942 4175 4871 4899 5598 5733 5795 6229 6267 6409 6589 7094 7138 7308 7520 8281 8416 8432 8669 9054 9065 9595 9920 10148 10326 10753 10861

8448
5387 6187 7062 8200 9033 9324 11260
53 282 861 952 1366 1480 1564 1780 1851 2110 2650 3023 3035 3159 3183 3271 4033 4842 4931 5583 5691 5884 5900 5923 6214 7424 8627 8992 9015 9407 9424 9945 10095 10202 10402 10807
1366 2036 2650 3273 3382 3441 4034 4054 4226 4712 5728 5859 5947 6267 6472 6748 7884 7996 8612 8875 9225 9388 9482 9945 11256

177 347 1056 1393 2260 3225 4416 6223 6392 6533 7348 7715 8241 8411 9766 10102 10337

1753



1014 1225 1708 7884
6924

9347


4436 8505 8782
63 2122 2960 4352 5561 6439 9200

3790 5683 10347


592 713 3712 4446 5255 5259


1695 1701 1912 2183 2280 2591 4326 6066 7504 8411 11036

763 952 971 1012 1083 1409 1569 1623 1717 1719 1851 2261 2411 2494 2594 2693 2806 3664 4339 4872 4952 5326 5598 5726 6213 6737 7730 8282 8369 8760 9205 10390 10487 11020



6106 6191
120 1778 3219 4169 5859 7018 7294 7828 7919 8609 9562 10010 10990 11180

10590
1678 2353 4601 7911 9834
215 516 1181 1748 2417 2675 5301 5808

425 463 4730 5116 5141 6925 8735 9847








1414 3371 3969 4743 5707 6939 9065 10674




933 1629 3074 3351 4176 4678 5384 5805 6737 7080 8316 8627 8822 8882 11020 11180
9284

1564
1237 2439 3411 7217 7712 10985

10763




275
506 1189 2707 3191 3483 4802 5728 8723


253 4169 4416 6527 6850 8241 9775 10240 10656 11010






216 1000 1473 2877 3219 3259 3271 3371 3787 3881 4122 4276 4310 4429 4571 4584 4743 4863 5426 5452 5783 5838 6278 6582 6676 6839 6999 7520 8274 8325 8348 9163 9400 9945 10376 10463 10897
968 6259 8726
253 516 1678 2417 5165 5501 6429 8060 8636 10052 10614 11027
1232 2515 3903 5387 5767 5989 8812 9397


2808
8295
5251 5641 7640 10540
388 994 1388 1704 2312 2729 4626 5832 5930 6520 6533 7015 7429 7549 9149 9338 9850 10974

1681 4391 5490 6131 6825 7749 9263 9451 9923 10606



573 5470 10990
1175 2345 6187 8059 9077
4025
253


2309 2784 6037 8051 10487 11015



4226
10537
5814
861 4310 7545 8706

4943 4952 8128 8474


43 937 1629 3736 4921 5805 5875 6213 7097 8956 9407 9712 10047
1634
1835




9993
266 6353 8181 8517







7352
2110 2591 3501 4436 7059 7644 7906 9682 10084 10402 10881


8908
421 5733 5763 6479

9163 10960
140 2085 3726 4326 7808 9847 10213









952 2965 7167 8458

4943 7534
937 1710 3410 4029 5838 5925 6871 8953 9030 9065 9543 9847 10978





1056 4240

774 1237 1384 9766 10540
5732 8281
4658 7869 7884 8551


4939
134 223 1289 1538 2693 2806 3462 3971 4309 5251 5326 5988 6214 7207 7643 7711 8676 9944
592 3244 8849 10132



253 4065 4945 6273 8426 8550





313 1414 1681 1776 3038 3073 4743 4799 5163 5399 5732 6360 7515 8662 9754 9953 10080 10247 10343 10487 10532 10540 10634 10843 10883 11105 11119



1394 3726 5716

2661 10840
1809 4380 7357 8369

254
600 1266 3259 7247 7766 8641 9651 9945 10828



4449 8992 9106 9276 10095 10148

496 3892 4140






5732 8161

5384 5875




1133 1281 2116 4690 4772 5259 5561 5814 7828 8038 9850 11285


6778 9575 10010


6181




1083 2085 2744 6192


2280 3440 4106 4432

9655
1225 2455 5733 7869 7884
5021
2006 2946 4248 4454 6192 6799 7446 7937 10828
4658

10863

1561 1713 4137 4288 5285 5582 6315 6799 8887 9441 9679 11158
2124 10253 11091






5270
3588






5111





1414 1569 3790 6192 6435 6612 6736 6881 7549











2153 3074 5889 6737
477 1181 2515 4344 4360 4529 4858 5604 5808 8425 8660 9331 9650 9813 10361 10967
9012
3219 3371 4339 10288
9611


4848

246 412 1743 1847 2220 3663 4142 4785 5436 6479 8509 8984 9258 9775 10465


1366 2717 6505 8524 9027







6429
1704
5641 9691

3074 6510 9364 10320 10540
253 6392



1157 8666
309 1783 2877 3425 6219 7549 9586
654 759 1705 3775 5116 5691 7570 7711 10054

1704 6981




2729



9143





2258 2636 4712 5485 6909 8295 10130 10326 10393
5826 7892
1247
1431 2495 2774 3572 3698 3831 3892 4242 4380 5087 5255 5527 6318 6799 8406 9077 9149 10537

2309 3664 4012 4029 5721 7433 9543



8363

350 4175 5009 7965 9920

4242



1851 4436 4867 7420 10209


922

1052 5452 7974
4175






253 775 1384 1947 2280 2367 2855 4718 5116 5304 5756 6310 7004 7160 7443 7723 8822 9149 9801 9984 10344
432 571 903 2743 3129 3136 3415 3770 4161 4368 4679 6413 6583 7129 7163 7479 7709 7897 7920 8340 9757 10196 11090 11129




167

775 10925





200 657 782 1890 2132 3172 3371 5376 7235 9453 9557
2323 3371 3871 4161
3371 9005 10177








571 3129 7129


1444 1685 2495 2534 2537 2954 4242 8509 9846 11365





1098 1569 1991 4164 4899 7059 8918 9388 10567





5762
9205

1847 1875 2543 2661 4093 6778 7018 7348 7444 8059 8637 9461 10654



573 1799 2417 10010 10992
4877 8330
3876 4288


491 683 868 1012 2461 2523 5563 7247 9011

9766

2220 5304 11306


4092 7206 7634 10263 11001





5816
3219

433 2784 5259 5584 5593 7310 7788 9850 10294 10707 11355


3129

610 1564 2014 2074 2630 3648 3724 4788 7507 8874 9564 10402

253 1044 4065 7816 8550 10010

3129 3967 4288 6519 9861 11365
3137 3371 6447 7129 7858 8523 9441 11021



226 321 1052 3661 4273 6213 7974 8910 9169 9288





2395 4266 6833 8822
1244 6878 7647







7545 7550

10925

9847




226 1525 1783 3881 6515 8825 10186
3472 4077 5290 7634 7660 11132



4226
312 1012 3971 4167 5326 5598 7134 7711 7967 9035
6389 11255

226 727 4444 5326 5936 7320 9357 9359 10487 10510 10828 10861





79 274 421 454 497 654 1138 1144 1232 1393 1528 1634 1729 1753 1861 1931 2096 2116 2121 2249 2260 2312 2379 2464 2559 2683 3414 3647 3749 3807 3832 4176 4344 4493 4582 4599 4626 4658 4884 5136 5268 5561 5731 5821 6326 6353 6395 6421 6471 6519 6533 6547 6613 6692 7048 8003 8432 8505 8517 8523 8544 8737 8842 9475 9535 9550 9628 9766 9775 9806 9953 10165 10241 10460 10516 10668 10939 11091 11109 11355

5255 9447

1125 1724 2134 2921 3110 4405 4718 5721 5762 7357 7549 7659 7711 7747 8475 9367 9713 10939 10960 11270
265 336 663 1113 1231 1623 1688 1699 1783 1811 2045 2195 2381 3003 3903 4053 4326 4449 4645 4671 4772 4798 4921 4990 5036 5115 5136 5715 5941 5949 5976 6389 6924 6925 7167 7549 7550 7561 7643 7687 7711 7730 7731 8679 8789 8821 9194 9347 9364 9411 9834 10054 10364 10764 11020 11112

1043 11215
516 4303 4384
9077

1704

577 3548 3667 4842 6392 6519 6643 7310 8426 8660 9149 9650 9805
10770



8293 10347


10925



1708 9288
43 79 579 1014 1052 1094 1125 1221 1264 1300 1414 1881 2017 2182 2367 2395 2460 2877 3011 3110 3118 3293 3790 4012 4033 4039 4122 4327 4364 4534 4646 4658 4743 4785 4799 4872 5037 5156 5343 5497 5758 5838 6148 6218 6294 6435 6520 6577 6582 6612 6800 6878 6880 6881 6939 6966 7262 7292 7316 7427 7747 7892 7893 8110 8360 8556 8577 8603 9065 9337 9367 9853 10186 10511 10689 10745 10843 10989 11089 11217
344 623 721 1414 1710 2207 3930 4238 4267 4963 5732 5889 7357 7642 7993 8279 9945 10086 10107 10148 10501



1012 1629 2411 4939 6213 6355 6520 8267 8822 9149 9411 10209 10590
6018

8591
1431 6276
573 3247 3422 4169 5087 5735 7204 8609 8775 10656 10860
5087 9112

3664


5728 7936 8219 8535



573 629 2111 3736 5615 10990



6349











10590








3647 6355 6547
5806



7343



610 1708 2042 2462 2650 2806 2965 4899 5728 5733 6554 6818 6842 7343 7726 7884 8598 8612 8669 9288 9959 10033 10393 10487





1333 3667 4247 4391 5894 7458 7689 8223 9823


536 2488 2954 6222 8450 9213 10026
8003
390 2177 5805




3503 10653

10277
3085 8517

1225 1601 11371




120 1133 1655 3042 5257 7076 8095 10295 10396
229 1851 2784 3462 6213 7247 7643 7731 8711 9839 9943 10510


253 452 891 3042 3832 5470 5691 9149 9872 10941






8330 10920

1083 1629 11020


4240
1414 2642 6066 8603
779 2110 9106
6799


4168 5226 5954 6502 6527 7709 7895


253 477 1655 2774 4380 4599 6039 8006 8988 9894 10349 10741

1568 2390 5087 6799 8059 8260 8284 9850 10485
313 937 1012 1232 1715 3467 4571 5379 9411 10689


1360 4240 7245 9039
579 721
1457 3937 4472 5021 6187 6527 6537 8161 8603 9605 10086 10668


4413

2085 8290 11189


340 7165 8056 10905




9646
4429



5136 10539 11055




1366 1708 2141 2302 2591 2650 3028 4054 4226 4743 5144 5161 5235 6237 6620 6909 6997 6999 7003 7815 8348 8729 8952 9388 9400 10248 10628



1704 3376 5087 5345 5846 6187 8525 9384

971 1221 1395 2017 2121 2639 2729 2855 3881 4176 4763 4899 5584 5659 6218 6258 7040 7345 8296 8410 8551 8737 9367 9753 10027 10840 10878 10890 11015
6878 6881 7250 10343 11119


2643 11365
135 1091 5900 7766 9228 10209
9971
654 1101 1719 2946 3462 7446 7520 9562 10510
7549
6784 7991 9163 9537



7062


6439 8284



4166 8448








425

8517


6179 6192 10086 10392

2153 2732 7080 10209
253 381 788 1056 1753 1799 1861 2303 2417 2654 3182 3283 3407 3541 3667 4065 5387 5593 5735 6013 6200 6519 6682 6844 6884 7152 7689 8181 8357 8591 8737 9813 9825 9970 10655 11364


3065 3384 5347 6187 6527 8059 8135 9258 9401 9851 11102

4327
215 9100
7711


6999 9853 10745



3110 10843
631 1444 2312 3391 5087 5593 7348 8059 8609 9149

2036 2426 5728 6941 10402


226 7474 10498 11020
5182 6067 6991 7592







4702 5354 6187 7116 8050 9149
2639






202 253 516 654 774 1252 1874 4065 4730 4943 5501 5807 6008 6819 7504 9849 10052



8359

1083 1701 2516 3304 3567 3650 4658 4952 5161 5214 5976 6213 7520 8020 8918 11303


344 618 1414 4658 6800 6878 7003 8318 8500 8662 9713 9747 10347 11089
1431 3247 3384 4288 4316 5259 5347 5748 6371 7015 7444 8059 8128 10459 11357





404 419 1967 2263 2289 2396 3466 3650 4160 4327 4743 4872 8652 8660 9228
1414 2729 7827 9015
573 2495 3042 3825 4472 4483 6144 6527 6620 7828 7858 8609


307 521 727 779 2597 3443 3567 4403 4436 5721 7138 7347 8432 10095 10160 10188 10413 10487 10540 10861



1799 4472 6613


8775 9894

11218


1150
2669
8083

8775
1643 7047



516 774 994 2056 2417 3371 4196 4884 5116 5268 6187 7406 7537 8879 10052 11189 11306
5733
201
5254 6640 6778 7348 8517

571 5229


199 1867 2128 3004 3351 4408 5206 5436 5859 5997 7204 7784 8128 8517 8700 10104

100









910 3778

630 1391 3321 5116 7443 7711 10394
622
3118 4963 6661
4012
1181 3971 5048 7703 7749 10394
1528 1655 5259



1457 6315 7811 9033

1699 1795 4427 5116 7948 8638 8679 9139 9401 9451
6000 8691
163 477 2784


10283
1746 6012
8982

9181

618 1083 1719 4952 6172 7134 9562 10009 10388

2751

1296 1997 2799 2868 3655 4339 4446 5691 6143 6187 6200 6392 8679 9151 9205 9442 10365 10748
2381 4429 5490 5704 5814 6213 6218 7731 8424 8475 8627



4436
340 1896 4340 4943 6620 8512

90 100 199 274 408 454 843 972 976 1133 1247 1643 1730 1799 1817 1861 1896 2111 2555 2689 2743 2795 2820 2851 2914 3067 3362 3490 3620 3698 4039 4240 4252 4392 4416 4582 4862 4881 5798 6315 6326 6395 6447 6613 7055 7646 7671 7709 7715 7920 7921 8003 8181 8226 8241 8431 8589 8591 8712 8745 8809 8836 9475 9501 9535 9993 9995 10241 10991 11205





3785 4142 5593 5735 5814 6187 6836 7310 8609 9464 9850 10165 10294 10839

6839

1799 2115 6326 8809 10241


3726 4290


7602
1678 2017
3381 8427 8679 9535

573 1861 2096 3736 4416 5021 5129 6187 6258 7926 8518 8660 9103 9628 10165 10253 11109 11355


9225


618 1719 3357 5485
952 2806 4436 5485 6267 7550 7694 7727 7791 9974 10390




5527
3074
1157


9766




1923 8497 11182

895

2194 2417 2654 5584 8426 8985
588 4584 6799


6213 6924 8789

3136

1569 3388 4788 10148
129 5805 6213
3129 3876 6067 7139





176 4127 5728 7094 7308 8874 10275 10320 10412 11371

4384


8830
4375







313 623 1473 2639 2729 4799 8462 10689


579 4039 4879 7474 9177

5378


564 1366 3021 4054 4403 4952 6755 7008 7343 9163 9288 9416 10390 10881
223 737 1623 3934 5326 5976 6213 6904 7134 7357 7549 9117 9425
381 1416 2417 2744 4247 5460 6187 6454 6527 6778 7234 7679 8363 8425 8426 8775 8937 9149 9654 9823 9970 10306 10365





952 1968
167 4247 4626 6349 6447 6525 8836 9475 9523



3114
9149
2693 3501 4436 7791 8612 8992 9054 10861

7834

1389 3371 3881 8743 10590




8792
4994

755

6474 8624


3381 6200













9525 10304


5251
142 937 1093 1181 2972 3159 3382 3971 4202 4585 4963 6495 7062 7080 7221 7424 7561 8763 9226 9407 9635 10060 10202







10839






1553 3971 4959 5094 5805 7160 8563 9011 9366 9411

4384 9887 10295


9156
6392 7766 8737
237 336 1479 4493 11365
999 3942 4199 7884 8151 8460 9476 9796 10148 11214
216 1098 3443 3917 3954 4436 4654 4743 4944 6755 7532 7727 8030 8585 10084 10095 10911 10960
3727 5111 7608 8237 10084





2464 3225 6187 6884 7015 10010
2395


290 1389 1711 2663 2729 3038 5618 7723 8161 8475 9001 9475

9000

131 571 1808 7139 7574 7709 7897
573 8609 8934 9763 10668

















6885
2085 3038 7117 8161
5087


1231 4743




4053 6799 8161 8679 9837

431 3028 4571 5326 10448




1508 3958 5976 7549 11015
1719 2263 3371 5758 5783 5988 6881 8662 8822 11075
7884

1395 2354 2464 3321 5387 8609 9823
217


10881
1317 9054

3329 4125 4863 4991 5143 7420 9153 11238
1708 2406 5733 7869


7773
1719
8345

1822 3251 4788 5721 6611 6685 7814 9945 10812 11059


2395 10205



5268 8841
3012 9532






1133 2364 2795 4688 5255






5713
1043 1247 2629 2774 2781 3620 3942 4562 4966 5436 5933 6109 6474 6613 7308 7429 7715 8251 8411 8544 8609 8744 9149 9775 10337 10440 11074 11371




1708
5326 6364

5600
217
1729





10285



9823
624 910 937 1083 1181 1204 1237 1685 1967 2096 2774 3065 3076 4176 4425 4943 5116 5312 5464 5527 5949 5954 6039 6312 6320 6574 6729 6808 7160 7869 8208 8402 8541 8551 8627 8821 8848 9039 9411 9691 10086
1045 1181 3971 4399 6213 6438 7357 7906 8141 9367 11008 11119

713 2277 11357




3917 5113
5490 6799 10086 10918
2630


1132 2201 4427





925 3028 3970 5024 6267 8416 8524
2987 3778 4315 6429 8158 8320 8348 8416 8782 10326 10412 11040





1701 2045 2896 3259 3321 5094 5254 5816 6934 7097 7427 9847







234 2141 2395 2619 3074 4645 5094 6154 8141 9418 9732 10209 10213


381 755 1191 2594 6533 8081 9813 9970 11189


1083 3023 3523 5805 6535 7048 9030 9727 10209 11119
454 4219

3163 6267

253 516 788 1637 1678 1706 2494 4066 4194 4348 4945 6392 7660 7841 8879 9149 9850 10349 10443 10707 11020 11189





3337 5798

253 516 3169 8363 9143 10668

4054 5485 5598 6931 8021 9682

10759

4134
132 1429 7819 8988
1495



1052






5875

2249 4636


8549
7029
1031 3523 6155 6213 6356 6438 7424 9847 9859 10202 11119

6213 10213
229 2806 4585 5976 6213 6356 6737 7766 8780 8910 8932 8992


1206 1799 2096 2384 2820 3247 4884 6392 6692 7773 8241 8591 9562 10010 10082 10990
1708 2650 4788 6719 8295 8612 9388



3163




847 1052



9015





711 2729 5260 6612

3656


1014 1225 1601 2751 6036 6349




10843


4636






2066 3038 5742 6192 6577 8051 8416 9054 9451 9655 10764
167 253 516 2374 4391 5769 6192 8424

3567 5485 8110



6854 10277


6825
2096 4884 5347 8609 10351



490 952 1719 3329 4785 5778 6213 7080 10209

6409

2774 9315














2249 8517 9644




1704
1217 1463 2045 3041 3218 3942 7545 8324 8729 9106 9734 10960

952 1809 3652 3816 4645 6213 7134 7792 8932 10209




3357 3491 3853 4054 4436 5111 5600 7545 8495 10783 10960
727 9015 9543


53 307 655 910 999 1065 1101 1366 1538 1851 2212 2279 2987 3009 3064 3102 3191 3459 3942 4712 4788 5587 7733 7782 7884 8158 8295 8669 9329 9595 9981 10184 10402 10494 11074 11273
6985




713 1281 1847 2345 3675 5194 6021 7348 8031 8260 11139



6976



9098 10253

1101 1366 2050 2592 3501 3664 5721 6413 7343 7357 7550 7711 7727 7791 7814 9416 10783
713 10101
1706 4858



6349

2309 5805 6349 6402 7357 10215 10540



307 1083 1098 1574 1678 1719 1851 1955 3005 3021 3259 3462 3661 3864 4168 4273 4695 4798 4952 5721 6349 6438 7020 7059 7320 7634 8371 8535 9012 9151 9169 9288 9392 10861 11020 11027
369 1296 2581 4921 6066 9475


4454 4880 8282 8612 9586 10861
216 779 952 1503 2946 3021 3028 3935 5566 6611 7094 7973 8416 8448 9212 9276 9548 9734 9919 10510 11059
11001


432


340 388 631 653 1133 1350 1483 1931 4104 4881 5254 5257 5561 5704 5814 6439 6692 7398 7788 8135 8395 8564 8591 9501 9775 10485 11359


381 815 994 1655 2231 5301 5387 5763 6109 7534 8003 8241
1051 1597 1629 1715 2479 2732 2855 3110 3372 3559 4193 4202 4645 4872 8556 8821 9015 9364 9524 9528 10354 10807 11015
7003




1094 2045 4879 5497 9225

1266
3371
4242 5133 6877 8509 10593 11365




1381 1875 5116 8424





129 1083 3027 6355 8389 8475 8605 9214 9949 10394
8293


2141 2381 2917 3321 3860 9562

7207
274 2774 3065 4704 6467
217 2680 3902 6187 6839 8737 9523 11182

8264 9177




132 2537 6527 9729


1839
243 1098 1189 2110 2913 3041 3057 4436 4944 5855 6100 7003 7474 8546 9205 9276 10199 11371


253 380 516 1191 1748 2417 2594 3271 4344 5326 5642 5731 6368 6661 7677 7689 9011 11020

11015
5136


4344
1232 2303




516 1678 1799 4545 5036 5501 8376 9392 10052
1366 5018 8612 10095
6293 7784 10588


2784
1569 1895 2309 2395 2642 2877 3118 4743 4963 5783 6391 6661 6939 7134 7173 9065 9228 9847 11217


32 2464 3832 5230 9205 10010

163 8879
8814

10918




4996
518 1048 1409 4054 4454 4695 5728 6589 7008 7550 9796 10327


5838 6825 9847
1746

10972



2401 2417 8550
10086


120
891 994 8962






408 496 1150 1254 1751 1896 2124 2820 3832 4413 6421 8213 8505 9535 9775
2125 2581 3382 3712 5116 6720 7424 9149 9825 9984 11020






7134



5055 8544
432 450 2132 2244 6067 6091 6144 7786 9005 9144

948 3566 3892 7493


986 1569 1783 2874 3140 4386 4658 5599 6178 6515 6612 6966 7080 7124 8293 9848



3603 4166 4181 4449 5472 5598 5728 6450 7934 8992 10276 10510
514 1808 1974 2465 2796 2909 3129 3371 3892 4190 4436 4639 4679 5450 6583 6700 7692 7896 7897 8178 9901 10498 10629


2630 2940 3074 3271 4436 4587 7347 7357 7643 9392 11119




9847

8090


922 3371 6392 8223

1634 4658



5257 10294
5324
1473 1678 2017 3027 4429 4571 4872 5036 6066 6676 6799 7711 7892 8006 8161 9064 9205 9367 10202 10925


432 2046 6067 8752

3572 6334 10922
3073 8821
994 5872 6192 10113



183 1685 5436

7080 8051 10320
412 1935 8517

3596 4226
2591

8517




518 7507 7791 7835 8295
8175 10071










5602



4240

966 1571 1706 2627 5354
2643
90 100 757 962 1247 2639 3318 4252 4831 6223 6479 7239 7348 7869 8181 8431 11205

6125 9053 9847
96 994 1113 1264 1799 2439 3452 3548 3736 4391 5452 5889 7046 7217 7429 7511 7730 8486 9181 9650 9802 10186 10967

79 2707 3429

22 179 1904 2856 4639 5373 5583 9000



1799

516 700 1181 1252 1803 2417 3808 5787 7207 8425 10086 11189



6661












472 654 691 815 1411 1528 1753 1923 2115 2195 2303 2447 3321 3407 3846 6613 7447 7493 8363 8516 8937 9120 9535 9962 9977 10396 10763
6080 11295



713 3262 5436 7204 8821 11102




9581 9847
5259 6324

1623 1719 1809 3074 4658 5910 6118 6294 7792 9011 10501 10514


6356


9691
204 9181


7549




253 1083 2097 6213 7923 9015 10347


274 9628 11010 11182









4688 8779 11124

5666

5111



3726



1564 2650 4175 8432 8448 9106 9920 10084




2729 3902 5484 6213 8627 9367 10213 11008

2726 4472 5763







1267


3864


108 517 1098 1225 2560 3942 4034 4449 5570 5728 6589 6778 8874 9392 9689 9789 9902 9978 10033 10075 10402 10487 11256 11294

2464 6134 6200 6533
43 3271 5447

3429

1133 1483 3985 5628 10707
307 952 1083 1809 2189 2261 2309 2410 3423 3816 3942 4646 5598 6213 7474 7791 7893 8369 9150 9416 9485 10009 10577 11020



79 1264 4658 6181 7003 9886

8314

3110
5436











3969


4971


608 727 779 2630 3078 3935 3958 4219 4384 4654 4991 5113 5148 6263 6267 6611 6991 8432 8448 9153 9212 9723 9857 10510 10881 10911
432
6355

1266 1414 1895 3849 4202 4899 6450 7142 7435 8348 9713 10310
90 713 1422 1483 1643 2121 2960 3089 3453 4176 4890 5129 5735 6109 6407 6474 6981 7204 7796 8395 8745 9006 9149 9851 10810 11205
3714


1225 5854 8992



253 2085 4065
491 618 1634 1783 1851 3354 3462 3938 4125 4267 4785 5161 5907 6191 6214 6612 6800 6991 6999 7142 7549 8110 8825 9030 9101 9177 10412 10627 10745













4425

4276 8915 9747 10186 10327


1012 9001 9065 10487







1352





2729 8161 8315






8908
7015





4526
1708 9939
6471 10080









1083 2482



5113 5452 6053 6747 10412



217 623 1221 1414 1736 2045 2395 3230 3293 3453 3548 3787 3971 4175 4326 4571 5260 5732 6661 6878 7117 7635 8279 9156 9562 9581 9754 9847 10213


2520 3159 4584 5036 6213 6825 7711 7731 9015 10487 10540

419 5814 6778 7207 7784 10484



821 1414 6041 8627

2074 2642 3462 4262 4436 7347 7520 9847 10347





4413
1094
4758 6066 6493 9397
90 2046 2571 2795 3348 4344 5379 6109 6439 7817 8745 10234

53 727 4128 4219 4384 5949 6362 8110 8348 9276 9747 10327
253 2746 3219 7234 8441 10246


5136

344

90



253 2464 4344 5589 6273 8853 9205 11080 11345

897



9847









1217 1414 1851 1968 2877 3607 3707 4327 6412 6606 7059 7316 7893 9996 10186 10989




6067 8863



2729

4384

7715 9775
3949
1994


5024
408 1138 1394 2319 2680 3371 3452 4128 4344 7131 7234 9316 9850 9970 10361 11364

79



9015




419 774 1384 5563 5756 6429 8691 10301 10598
1947 5254 8627

6139 7184


3038 4743 4879 8670 10288
380 7207 9813
1045 3259


2439 3348 5900 9205 10985




3028 3588 3934 4309 4943 5326 5497 5602 5728 5805 6362 6435 7435 9276 9416


4315



8285




3410 3664 4991 5721 6685 7791 8345 9974
1436 2096 8609 9059 9600
1585 1799 4242 5593 5874 7018 8221 8517 9077 10361

573 9205
6471







96 243 847 2624 3501 3992 4425 4436 5833 6163 6964 6971



167 1634 2479 2693 3462 3547 3656 3816 3881 4375 4646 4752 5814 5976 6018 6191 6192 6363 6612 6736 7257 7357 7634 7711 7993 8345 8360 9428 10518 10989
302 608 697 1094 1189 1266 1798 1955 2110 2231 3958 3970 4128 4384 4802 5111 5709 6163 6192 6554 6991 7094 7690 8219 8339 8348 9014 9839 10086 10617 11349

5169
253 774 10364 10763



10371 11015

769
9777
321 618 1083 2896 3118 6192 6661 8474



3472 5193




253 1835 2693 4842 5048 5287 6019 9139 9953 10054 10485 11189 11270



6700

















6413









6543

10379



1569 2172 2806 4262 4436 5721 6686 7791 8004 8432 8760 9243 9689 9920 10612 10783

1704




3118

2630 4043 5113




1520


9416
908







167 966 1381 1809 1968 2439 2642 2921 3042 3348 3411 3452 3949 4858 6125 6173 7003 7549 8390 8466 8879 8989 9478 10064 10361
7424




3074 5813 9065 10213 11180
3348 3775 8729 10763
1110 6214
2309 2946 3790 4276 4646 4658 4802 5683 5889 6192 6294 7142 8110 8270 8360 10788 11089 11262 11348
2784 5855 7782

2417 2784 6527 9466 9970 10637
1300 6155 11015

3064


454 2121






334 3005 6191
380 654 1979 6173 6844 9650

2289




10188



427 452 484 2594 6527 8609 9149 9850
1174 1189 3033 4863 8293 9847

999 1875 10418


204 7062

253 6613 9894

2537 3967 5547 5605 7709 8792 11090



334 1715 2639 2689 5116 8812 9828

2441 6192

253 656 2744 4065 4348 6273 6392 7062 8426 8775 9149 9850 9872 9918 10977
7550 7791

7139

172 1538 2630 4871 5009 5721 6554 8416 8685 9212 10095






9139

3881 6497 9316




3129 4092 5121 5342 7709 9453 9687
131 1267 2968 3461 3698 3704 4003 6067 6315 6527 6700 7681 7708 8221 8479 9679 10729 10771 10971

67 172 290 378 742 908 1634 1699 2141 2243 2389 2693 2729 2851 2921 2940 3027 3073 4405 4983 5889 6019 6178 6191 6192 6399 6493 6991 7160 7427 7549 8030 8192 8314 8345 8475 8500 8583 8662 9120 9276 9451 9751 9886 9912 10186 10205 10213 10263 10275 10288 10376 10770 10918 10939 10969 11036 11170 11306
840 1624 2693 5787


277 2025 2096 2591 5347 5589 5593 5735 6527 6778 7487 7828 8518 8609 9059 9562 10104 10161 11109
1593 4678 5326



9788


1233 4427 4943 6066 6696
8085
9608 9970
172 2366 2630 4944 6267 9106
6554 6685 6991 9574 9689 10510 10972
8609

516 2417 5758 6192 7207 8849 8879 9015 9850 10052 10590
2395 2528 4785 6192 6294 6520 7427 8270 8360 9788

910 1708 2747 2885 3513 6975 7869 7884 8580 9904 9938 10635


8896




9416
3407

1133 2045
4288

2309 3271 3467 6191 6213 10213

1017 2167 5018 5816 6497




5452








4339


419 4025 5910 6360 6682 6881 9140 9364 10205 11363

2388 4571




2379 3325 5257 6751 6884 7828 9690 10082








5111 5721 6975 7644 10510

195 994 1064 1655 2096 2820 2973 3351 3490 4462 4562 6479 7076 7429 8812 10431

7129
10770
2491 4898 5206 5528 5561 6134 7015 10049


205 339 779 2110 2279 2358 2487 3009 3596 3895 3934 3992 4154 4219 4436 4867 4991 5009 5143 5709 6554 6626 6991 7184 7316 7532 7608 7690 7936 8237 8348 8448 8706 9163 9538 9723 10277 10327 11232
2182 6966 7247



279 1637 2417 5251 7348 8426 8660 9149 10977



1681 2395 4391 8475 9451 9751





2288
7869
516 4626 5642 5862 11189


2680 3321 6502 10086 10925


307 6755 6991
1955 5326 6349 8141 9732
6141
2954 4288 5675 7444 8887 11365

432 2661 5133 6859 8025 9816 9846 11365


10935
4386 8516 9847 10364

3028

5212 6446
5763 5930 6447 7715 7773 8411 9775


1444 11365


1978 6628 8591
7184





994 1704 6844 8666 9475 9650


11337

2694
2464 8432

2134





4991


497 2249 4053 6144 6447 8679 9678 9690




1189 9881 10148
9886
9562



1630 1708 2689 3074 3219 3371 4166 5144 5885 5947 6748 6799 7204 7733 7807 7884 7996 8458 9154 9945 10148 10461 10487


8743
1094 8215 9225










610 910 1708 5733 5741 5885 5947 6267 6684 6738 6975 7733 7869 7996 8551 11020 11294





10361

952 1038 1623 1715 3372 4872 5326 6037 6213 7160 8293 8411 8556 9562 10540 10807
149 1719 4835 5009 5690 5721 6213 7316 7474

1614 6315 8750
7139
22 481 782 1267 2209 2419 2488 2495 3492 3663 3876 4325 6067 6700 7139 8450 8919 9453 9930 10062 10558 10629
2417 3169 5470 8363


774




727 1967 4867 5855 6800 8180 8500 9212 9651 9702


573 1012 1522 1799 2417 2784 4743 4858 5501 8425 9825 9850 10303 10361 10365 10636

3726 5766





8264

602 763 5763
514 4140 6067 6527
1267 1512 1709 6527 9213 11144

908 2381 3409 7262 7967 10347


3118 4011 6547 9775 10343

1358


9548
2244 5501 8476

2302 7138 7964 8918 9276

1612 2110 2366 2592 3396 3501 3656 3816 3864 4491 6229 7791 8633 8992 9037 9153 9243 9364 10372 11335
5949





9294




2388 2921 6504






3027






4122 10763

7934
991 6047
5577
1916 2045 5394 6178 7923 8296 8861 10148





7008
138 5326 6058 6148 9586 10066
5260








937 9754





2494 8315 8551 10590
134 2597 3934 4054 4444 5598 6364 8773

6214 7549 10487


5733 7869 7884


3371


11109
253 1498 2464 5402 6187 6277 6527 7018 8609
3501 4454 7608

2439 2508 2729 5036 6318 7160 8052 8090 8161 8861 9181 10764





1136 1486 3647 4416 11109







6435
2259 6854 10148 10881



713 976 1685 3406 3538 3698 4093 4204 4252 5357 7819 8541 9039




6685 7711
1534 2066 3726 4884 5257 5268 6981 8523 9367






2096 5213 5930 9562
3137


5501




622 966 1748 1799 2591 3023 3472 4176 8397 8763 9373 9397 10170


167 828 843 934 1134 1655 2121 2122 2661 2683 3067 3871 3883 5096 5206 5436 5627 6421 8564 8609 8743 9775 9850 10143
579 600 1094 1634 1719 1809 2877 4646 5683 5826 6924 7173 9996 10989
2458 2594 8006 9729

9104 10865

388 1655 2096 5206 6334 9447 11102


120 124 253 388 1350 1483 1638 1931 2096 2122 2960 3067 3240 3351 3490 3871 4303 4599 4635 4759 4881 4884 4890 4966 5561 5821 6109 6320 6395 6407 6439 8523 8564 9315 9550 9562 9662 9806 11065
3792 5807 10763
3935


5251







4456 9806







8295
874 6836 9650

349 910 4712 6464 9319 9981 10713

3011 7724 9367
8426 8737 9149
253 4741 5340
8591

369 1083 2085 4786 7149 8006 10080
4528 10101

8295 10576
976 5216 8849
1685 2495 5259 6293 9432 10001 11365


2045

9848









2096 3567 4134 4156 4952 6213 6927 7357 7446 7643 8757 9011
1560

2683 3137 3783












2917 5490 9953 11067

179 1133 4161 5835 6439 6479 9284


1074 2669 5087 5255 9151 10905



1064 1133 1655 3490 4562 4759 5206 6395 7015 9077 9447
3970




2134 3259 4785 5378 6800 6833 7815





10086



1083 1708 2946 6684 8295 8681 9319




10365

6819 6975 10796


369 527 596 630 772 1012 1083 1157 2041 2381 4326 4728 5116 5923 6326 6696 6720 6729 7160 7390 8006 10925
591

79 8398










432 967 1492 2060 2088 3882 3883 3984 4001 4240 4493 7185 8363 8830 9747 10403 11174


7139

1101 7906
496 1387 2367 3404 3503 4413 4416 5251 5846 6392 6527 7204 9562 9851 10253 10810 10840 11109 11217




4240
1184 8499




1243 2673 5116 5257 5501 7711 8290 10152 10365







347 5527 5731 10165







282 2669 6799 8491 8733 10837



713 976 2896 3892 5488 11365
1486 2249 2537 3052 5347 7116 8679 9894

7873



307 2058 3501 6229 7550 8295 8492 8612 9065 9595 9682 10861 11020

1157 7534 7709 8809 11364
4074 9466 11359
253 4529 5340 6273 7152 8426 9149


6527 8241 8609 10990










385 3501 3864 5721 6686 7791 8612 9054 9100 9243 9562 9903



277 1393 1799 2187 2417 2480 3720 3913 4582 5735 5798 6527 6884 7018 8226 9149 9205 10977 11180 11296


952 4023 9276 10188






5251 6778








1350 1931 2122 2774 2960 3240 4599 5436 6320 6981 8624 9550 11359



307 1574 4646 4726 4802 4879 7050 7917 8706 9747 10849


6218 9650


491 1120 2124 2877 3664 4444 7643 7731 11020

135 1358 3371 8467 9848

4202 5805 9562 10764




1232 1414 2591 5055 6214 7424 8462 10540
53
53 3183 3583 5728 5884 8320 9392 10358 11059 11371
5758 7007

631 3219 3698 3923 4252 5574 5593 6320 6371 9775
7527 9188

2630


1250 1381 2440 3309 3348 4391 5281 6331 8192 9219 10477 10606 10766


490 1746 2134 2153 2528 2875 4202 4646 6205 7041 7134 7672 7892 8500 9030 9945
1113
2288 3064 3121 4154 4166 4436 5812 6036 6885 6975 7184 8080 8093 8151 8219 8723 9817 10811
2134 2784 4320 4407 5116 6355 7967 8627 9140



421 1704 2096 4328 4884 4978 8609 9149 10440


10525

385 779
9391 9984







933 2576 5116 5490 7322 7711 8627 8822 9065 9151 9411 10764 10989 11015
2729 4066 4077 4223 7390 7990 10788
952 3650 3816 4743 5326 5783 9011 11015

6438 10320

1534 2693 3462 3596 4449 4531 5598 6819 8281 9225 9364



4939 6964 8692 8782 8918
618 952 2461 3074 5573 5805 8657 8952 10264

3572 9455 9690


427 1115 1449 1763 2643 4161 4265 6114 6304 10143 10805 10884
4666







1534 1715 3009 4991 7550
5342 6067
2786 5027 8517 9729



350 2395 3440 3790 3971 4646 5009 6753 7532 7549 7711 10849


1569 2467 2551 2806 3501 4436 5326 5721 5805 6349 6819 7347 7446 7550 7791 9595 11059

4161 5180 9150 10629


1091



6392

2280 2381 6433 10295
393 491 840 1094 3259 4054 4156 4276 4436 4444 5326 6213 7549 7643 7731 9012 9562 10344 10989


654 1844 4842 6045 6613 6852 7234 7898 8175 9015 9326 9331 9747





1094 1569 4658 5758 5907 7316 10084 10347
350
7003 10525




142 369 425 1678 2417 5254 7074 8848 9834


9056 10567
2693 3775








313 1715 7040 9140
1113 1682 1799 4529 4559 5022 5642 7634 10052




631 7015 7348 9338 11102

1205 3381 3620 4462 8047
53 1414 2170 3251 5469 8164 9212 10253



6799 8849 10218


2680 8591 8627 9535
2121 2301 2899 5259 6039 9006



1083 4907 5304 6355 8932 10394
135 2096 2661 3504 4792 5735 5756 6778 7828 7892 8749




3028 5728 6818 6819 6924 7008 7694 9595 9682


234


4344

167 217 653 672 1250 1576 1934 2045 3411 4386 4740 5324 5490 6520 6925 7034 9367 9953 9984 10263 10371 10590 10763 10925 10969 11170
654 815 1038 1232 1457 1753 1923 2500 3371 4344 4506 4542 5989 6613 7217 7909 9475 9813 9863 10086 10960
1416 2319 2464 3219 3371 3566 3667 3832 4247 4391 4943 5457 5894 6200 6573 6613 7689 7796 8086 8223 8591 8809 9823 9918 10403
6545


937 2917 8627 10540
3318 4333 5436 6527 7204 11102
177 1012 1098 1352 1366 1534 1783 1822 2121 2608 3140 3619 3645 4454 4695 4884 4952 5628 5728 6187 6450 7287 7343 7608 7847 8612 9586 9649 10095 10460 10461 10897 11027


4391





5347 7447 10960



10241


1048 1356 1601 1708 1783 3021 3501 4436 4899 5024 5730 6375 7008 7287 7343 7791 9672 10255 10861 10972

1119 3397 4679 6276 7897 9729

8743
2259



9847
5872 7869
4787
6684

667 6603 8279



7634
2309 2576 2693 3110 3548 3712 4943 8272 9015
1014 4899



4167

2475 3567 4658 5452 5835 7561 8594 9065
4176 6191 6520 6696 7040 7711 7800 8763 9149 9347 9847 9999 10540
1189 2465 3137 3367 3698 4240 7932 8842 10071
600

7709


4436


1012
1641 4193 5642 7207




8208 8517
1083 2050 4491 8219 8633 10141


223 6971 8633 10277 10347

477 1678 6569 8760 10052 11260

1685 8187
1080 1715 2309 3523 4444 4872 6438 7711 7906 8293 8882 9030 9635 10209 10807

253 277 1637 9331 9850 11010


5254 5747 6187 7116 8591 9550



421 2669 2973 5997 6094 7029
4176

3564 6525 8789

9205

516 3775 7234 7823 11039
177 325 421 1771 1897 2096 2345 2571 2594 2601 2669 2784 2786 2820 3089 3594 3663 3857 4142 4413 4688 4978 5106 5240 5436 5561 5589 5593 5846 6187 6286 6386 6474 6479 6958 7174 7179 7534 8341 8491 8523 8550 8743 9084 9206 9432 9775 9806 10227 10440 10707 10920 11359
6547 7715 8700 9562 9775 11175




2805 4242 5087 5257 5259 5309 5593 6144 6187 8031 8059 8517 9077 11102
6000 6818 10275
2464 6353


527 9411




5561

1881 4658 6229 7003 10745




279 3321 9149 9748 10010
2495 6799 8025


2096 3541 4884 5098 5251 5593 6187 6778 7128 8591 9850

1358 7059
9508
3056 4555
167 425 477 1678 4290 5387 6876 8653 9260 9401 9626 9813 10788
100 167 654 2096 2136 2680 2726 2868 3360 3749 4938 5894 6141 7104 8517 8679 9918 11364
2639 2707 4879 5885 6355 6799 7884 7990 9920 10084 10344 10394


4384

1710 2381 3027 3038 3971 4384 4785 4799 4921 4983 5036 5116 6213 7019 7892 9063 9337 9857 9940 10394 10689




2899 3736 4961 5133 5259 9501 10161 10459

6676
827 2073 3325 4288 5182 7015 8050 8059 10481










8609 9021 11010

223 847 1052 1851 2050 3491 4449 4719 5485 6213 10510 11196


7733
302
11358
2514 5116 7711 9149

478 1442 3293 6685 10644


5497
3532 6527

118 253 269 381 421 578 2266 3373 3585 3720 4413 4978 5653 6221 6392 6527 6884 7015 7834 8088 8405 8426 8505 8544 9550 9782 10010 10161 10253 11293 11344


8474 9848



6267




1096 2523 2591 4872 5115 6213 6310 6326 8922 9562 9945

3028 7040


1808 2726 10459
274 347 484 496 1137 1144 1778 1935 2594 2726 2820 3414 3913 4384 4413 4416 4462 4884 5021 5087 5251 5584 5593 5653 5763 6223 6407 6447 6533 6701 6740 6778 6935 7533 7671 7715 7728 8003 8050 8226 8300 8575 8712 8843 8894 8896 9149 9347 9464 9690 10082 10253 10433 10668 10840 10977
432 10904

216 506 521 727 779 2231 3078 3656 3992 4991 5613 5733 6267 6626 6885 7007 7075 8219 8237 8432 9106 9212 9963 9974 10476 10510 10881 10911
4885






432 713 3596



117 329 579 713 2345 3768 4386 6640 8260
97 3778

345 1125 1668 1715 2017 2045 2381 3011 3719 4012 4963 5116 5493 5721 5732 5783 6520 6799 7292 7433 7505 8296 8314 8405 8430 8821 9367 9912 10376 10511 10689 10764 10823





4867 7936 8492 8495


806 1191 5324 5807 8812 9834
6109
6504


5910





10982



4884 5257
6445 10674
8549



1045 2207 8325 9945
976 5027

253 527 1044 1869 2124 2207 3094 3225 3851 3881 4247 4787 5347 5421 5989 6200 6445 6547 7796 9205 9945 10010 10707
8775 8879
1083 1701 2201 5349 5900 6438 6737 7711


672
1875 6017 7841


1569 1578 1851 2693 3501 4746 5728 6267 6975 9212 9411 10326 10393
625 7510





232 2395 5889
1300 2626 3881 4743 10086

516 885 891 933 1044 1706 2187 3763 4052 4169 4605 5301 5563 6192 6504 6519 6545 6729 7858 8213 8550 9149 9466 10707 10960 11153 11155 11307

8151



1098 7694


10101
3259 3271 5018 5209

2717 6505 7504
8324







4408 5087 6479 8518

994



2065 3864 5326 5833 7791 8264 8992 10166




6294
6527 8609 9021 9589 10990





2464

445 1444 3244


1503 2366 2535 4298 5721 5795 8295 10326 10340


516 3472 5691 5806 9849 10052

5036
727 1715 2074 2467 3491 4436 4921 5116 5200 5501 6349 6964 7641 9054 10487 10828



562 1431 1444 1685 2665 3745 8208 8849 9103 9260 9777

1157 5769
4599
124 529 3360 4636 5309 5604 6187 6355 6392 6682 7048 8086 9550 9823 10086 10840 10895
4161


527 4483 8800

412 536 1246 2096 2488 2537 2796 2998 3380 4142 5087 5098 5436 5583 6630 7872 8050 8452 8517 8821 9151 10789
6778
5098 6527 7348 7444



1083 2381 8411 9401
4536 4650 7895 10479 11365

183 3244 7163


3658
3491
1266 2721 4267 8110


2515 3504 5704 5758 7608 8497 9478 9763


3110 3310 4125 6661 8047 8475 11059
516 1191







3440
307 2528 3373 4219 4327 4867 5439 7991

3453 4391 5593 6223 6457 6466 6613 7689 8661

2859 11214

2784 5659 7275
5260 6881

79 1352 2630 3062 3218 4175 5326 5485 5747 6819 8324 8992 9682 10310 10487 10861






3382 3605 4128 5493 6192 6577 8512 10764


1115 1175 1323 1401 1428 4052 5501 6635 7681 9846 10382 11365


5574



4219
5116 8741 10487






325 9149
9397
1113 1347 2417 2807 3548 3726 4348 5340 5580 6527 6537 8221 8426 10977


4842 5808 7685 7784 8636

618 3567 3971 7086 11117
4240


9886
331 9367 9751

677 1715 2729 3224 3440 3881 4328 4416 4798 5163 5593 6192 6799 7019 7166 7239 8627 8743 9367 9713 9995 10086 10347 11166
1347 1715 4872 5484 5783 6066 6154 6218 6737 8314 9562 9754 10361
516 2417 2458 5409

1266 2153 2309 3110 3305 3849 5165 6172 7357 8932 9562 10084 10166 10923




6594 8175 9679 9926 10982
2998

10033


894 2417 4056 4227 4842 4888 6527 6620 10977




2726 4605 6762
388 4884 5584 6187 8476
573 8609 10990 11180




419 1947 5501 6799 8376 10084
120 432 1113 1382 1429 1923 2669 3489 4288 4380 5309 5890 7730 8094 8402 8733 9455 10982 11158

9225 9996
5198 9501
7458 11182 11296







2861 4279 5116 7967 8006 9411 10139

7479
5674

10479
11151




617

952 1012 3501 3513 4943 5165 5245 6139 6589 7308 9281 9702 10148 10277 11059
910 5733
3371 10970

4327 8896 11364
966 1411 2508 2680 2943 3985 4136 6471 6844 7085 7634 7730 8661 9053 9316 9650 9813 9834 11260


2263 2460 5721 5783 8500




1233 4333 5954 7817 11365
1457 9977 10301





1044 4142 4161 4328 4916 8609 10741 11359
10982
2266 7736 8609 8878 9149




5026

10764




5858 7397

2045 6148 6881 10148
10708



868 1083 2806 3491 4039 4054 7373 9359 10487


861 952 999 1094 1352 1366 1423 1708 3513 3648 4255 4449 4705 6100 6435 7934 8324 9795 9920 10276 10461 11248
7897


4879 8603 9635









215 323 5048 6881 6966 8410 8825 10501

6701

5375 10673
6 477 516 4114 4348 5470 6613 7234 9015 11010










880
2618 2917
2309 3423 3567 4952 11349

253 380 477 2395 2411 2417 3964 4364 6349 8325
5875

1414
2045 2452 2639 5838 9847





788 1191 1706 7109 9834







558










5436 5561
6511

5997 9364
321 6573


432 713 2786 5255 5259 6318 6859 9260
1748 2594 4702 7634 11020


517 3491 3513 3942 4867 5732 5914 6626 6881 7138 7352 7936 8706 8782 9794 10199
2960






6698 7211
1157 2639 2729 3881 5163 6696 7376 9581


5452
657 3129 3136 6082 7129
7348 8406
10479



1150 6118 6676 7062 7247 8110 8316 10936 11015
339 721 1094 1217 1881 2309 2877 3153 3371 4039 4658 5990 7003 8360

4726 7550 10199
43 313 654 727 815 933 1083 1150 1231 1254 1300 1411 1753 2195 2729 3219 3271 3388 3554 4114 4348 4763 4963 5387 5732 6446 6898 6972 7019 7262 7427 7499 7730 8363 8467 8937 9065 9205 9347 9407 9411 9535 9650 10047 10540 10764 10823 11328





4416 8575 8712 10895

3004 10295
96 350 3501 3934 4327 9416


6000


1264 2134 2294 2309 3074 3305 4012 4327 5875 6839 7357 8293 8500 9581 9712 10113


1157 5094 5731 6502

6178

419 1264 4110 4134 4762 7936 9065 9996

4303 5436 6324 6799 8025 11139



1798 4654 5721





5009



380 477 1951 2429 3023 3348 3360 3382 4303 4796 4858 5354 5501 5704 7206 8879 10301 10540
901 2913 3727 4654 5728 6626 6745 6924 8237 8729 10510 10617 10960

1875 4594 8379 9508


5387 7533 7715



4587 8556
933 1622 3971 4444 4587 4728 7160 9347 9411 9562 10213 10347
134 253 821 1569 1629 2017 2177 2386 2540 3271 3853 3934 4326 4646 5598 5728 5778 5875 6213 7080 7376 7640 8219 8314 8474 9015 9037 10229 10343 11046











90 946 1360 1638 2096 2136 2906 3012 3067 3490 3679 3922 5130 5268 5821 6039 6196 7534 8135 8523 9464 9628 9662 9691


4449 4658

3664 10086 10590
9881
8517

4996
1705 4183 4730 5116
3846 3882 4391 5021
9522








6989
713 2249
618 925 1065 3218 5116 6398 8237 9702 10487
7357

340 4368 6547 8733 9678 9803 10143 10759
1667 8054

216 2462 3501 4054 4425 4449 5914 6311 6964 7287 7726 8612 9761 10402 10830

1994



713 933 1246 2899 4884 5070 6224 11010




6612


1473 7234 7711 9205 10236
















5322
5574
167 630 672 2940 3771 4386 4391 4792 4848 5115 6504 7570 7701 9316 10967
5399 7766 8296 8389 9337


2591 6030 6852 9205 10010
7129
4884



8 279 654 828 1083 1167 1254 1393 1498 1528 1603 1638 1753 1839 1869 1923 2096 2132 2345 2388 2441 2464 2808 2861 2896 2899 2943 3023 3371 3379 3407 3667 3832 4092 4114 4176 4326 4328 4348 4391 4405 4429 4444 4529 4582 4626 4758 4884 5087 5099 5116 5251 5257 5347 5387 5457 5584 5589 5593 5814 6039 6066 6200 6218 6297 6407 6421 6613 6625 6778 6844 7117 7348 7671 7689 7796 8086 8223 8241 8300 8475 8540 8583 8609 8679 8807 8896 9156 9281 9347 9397 9535 9766 9970 10054 10396 10839 11015 11036
571 2726 2774 2856 4128 4413 4457 4884 5436 7316 8350 9188 10033 10902
120 454 933 1113 1934 4073 4703 6519 7003 8131 8314 8743 9260 9847 9971 10086 10148 10407 10498

1366 4054 6747 7343 7936 9974
7869

215 313 2263 2280 3038 3889 4364 4529 4758 4763 5322 5718 6681 7424 9149 9822 10213






564 847 1101 2747 3095 3462 3501 4436 5721 5805 5861 6364 6611 7791 9182 9974 10199 10390 10783




253
1094 3064 4802 6148 7003 10525 10911
4176


2395 10209



1414 2630 3523 6606 7050 7357 10086



516 1181 1839 6513 7207 7254 8006 9849
1094 1809 4658 9163



952 1264

714 2537 8285 9150 9729 10062





6192





5748




159 167 289 548 933 1091 1138 1393 1637 1896 2187 2294 2464 2735 3011 3159 3225 3922 4160 4384 4582 4626 4743 5021 5062 5116 5240 5758 6107 6519 7059 7083 7160 7458 7515 7536 8241 8514 8660 9015 9120 9143 9407 9464 9535 9611 9723 9766 9857 10083 10668 10839 11027
8517 10860





172 307 925 1366 1783 1822 2462 2806 3491 4454 4996 7008 7343 7694 7906 8398 8612 8669 9682 9796 11059
165 1974 3881 4190 4925 6276 7921 9453
4177 7040
571 3736
10394


3775 8290
2395 3259


2134

79 506 721 986 3501 3790 4175 4327 4654 4658 4743 4871 5303 5733 6550 7025 7873 8320 8851 9288 9734 9814 10199 10989
6661
2707 4952
3650 5094 6360 6445 7080 11008



275 516 4477
847 945 1384 2057 2806
10598






5480 9425 10251

1052 2913 3028 3491 4134 4310 7608 7936 8237


788


230 4333
903

1564 4899


2747


5997 6395 9753

5259 5638 8549 8733 8988 9151 9679 11362


5816

2110










1715 2410 3028 4166 4449 5914 7008 7059 7446 7520 7711 7934 8244 9586 9595 10084
4344

10117

106 1083 1181 3956 4326 8874 9149


2909 3106 4161 4415 5784 8128 10629



216 302 1052 1798 2642 4802 6148 6212 6267 6611 7003 9225





2771 2831 4824 7943
1826 10047





3310













6943 8059
253 484 516 654 1748 2465 2893 3023 7493 7703 8879 9139 9850 10052 11020 11027


618 2455 8083 8151 10033 10849




5731

380 2193 8363
3343 4425 4724 5568

1798 2630 6975 10510 10881 11232

5716 5989 8363 8502 11182



201
4472
246 2618 2803 4337 4584 5062 6213 8556 9140 10165
4179 4495 5216 5436 5814 8395 9766 10403 10863 11102








129 1221 2693 2729 3414 4429 5744 6192 8475 8609 9015 9064 9149 10487 10791







269 10052 10542

6181

96 1851 2110 4134 4802 4991 5009 6181 8915 9747 10634

9581


338 491 1414 1733 1738 2207 2289 2460 2763 2946 3028 3118 3140 4266 4310 4436 4743 4872 5254 5326 5602 6012 6192 7019 7766 7936 8320 8984 9651 9690 9713 10186 10327 10577 10636 10989

6676
1895 2134 2141 3074 3467 3971 4444 4571 6191 6213 6355 6800 7160 7292 8031 8085 8424 8627 8819 8821 9411 9941 9972 10213 10347 10394 10487 11015 11020 11078





8047
3028









2643 6353



1014 4899 5733 6100 6349 6885 10277


282 880 1083 3546 5626 8306
380 3371 3378 4176 4773 7003 7074 7142 7308 8281




253 425 2729 4455 4885 5808 7443 8047 8808 9149


1534 5449 5805 6349
1083 1947 2689 2861 3011 4326 4386 6395 6504 8549 8749 9609 10540 10925





1232 5732 5838 6661 9015 9205



135 217 821 908 1231 1414 2017 2134 2579 3881 4033 4587 4963 6192 6218 6321 6676 6799 8314 8528 8669 8861 9015 9064 9367 9581 10511 11015




2479 4436 4454 4920 4991 6611 6991 7316 7520 7625 7741 9024 9521 10186 10897

6833




5394
5732
6612 9241 10347 10745
5259 9816 9887

7549 9439
721


427 8095 8517 10161 10366 10608






868 9428

1431 5636 5954 6144
79 1753 3371 6519




3913 5638 6189 8056 8135



1221 2183 4375 5816 6504 6924 7711 7800 9977 10054 11112

5182 6080 7708 7897 9213

183 2590 2643 3489 4223 8327 8849 10150



3411 5501

2061 6109


347 951 1603 2345 4155 4526 4673 5347 6533 8609 9077 9205 9992 10484

1205 1923 3897 7646 8222 8679 9654 10241 10396



2729 10689




253 381 477 1244 1778 2381 2417 4196 4529 5340 5354 5642 6187 6527 6620 6696 7004 7841 8425 10054 10344 10977
6684

5501 7634 8760


1083 9771
1014 5733
4649

7316 10347 10960




4518
131 1087 2954 3130 4104 4225 4333 4600 10653
1264








325 1264 6527 7015 8561 8852



4326


8547 9056
1137 1393 1896 3309 4884








477 9690


630 1389 9416
9089
608 894 1266 5583 6620 7048 9562 9712 11296 11359
5480 7019
6657


2386 2396 7019



3536 4377 4416 5347 6763
339

253 700 2319 2447 3381 4858 5301 6187 6527 6545 7116 7234 8405 9015 9149 9205 9850

217 1300 2596 2946 4128 6364 9944 10487
5721 7791




5326 5875 6041 6972




819 1715 3272 3513 5598 7008 7931 11105

1136 1522 1771 3247 3414 4734 6187 8059 8260 8505 8591 8737 9775 9850 10860




2643 3489 11362
3004 3504 4842
6080

1076


79 159 217 275 325 396 421 484 490 821 861 937 994 1060 1232 1350 1414 1483 1486 1569 1585 1678 1809 1931 2124 2243 2259 2395 2475 2596 2617 2642 2786 2877 3140 3414 3667 4059 4161 4310 4327 4436 4562 4587 4658 4743 4872 4884 4991 5240 5452 5497 5763 6362 6515 6884 7044 7424 7715 7865 7892 8038 8059 8181 8237 8274 8360 8518 8603 8822 8825 9064 9523 9611 9747 9788 9847 9936 9940 10083 10186 10213 10294 10327 10440 10525 11015 11091 11217

2535 6139









7727
4391 5933 9970





4728 5094 7244 7424 9001 9030 9361 9411 10540 10579




3045 3596 4315 6018 7007 7974 8432 9276 10084


4728 8712





3028 3483 3970 4436 5728 6975 8219 8348 8416 9276 11217


573

1916 7533




6326


7725
9401

1157 1912 2153 2193 2689 3003 3290 3423 3467 4177 4427 5992 9205 9562 9754
3271


2140










310 2680 8549 10258 11260

2096 5584 6187 6547 7265 9077 9775 10707






6661 8500 8922 9713 10086
10911


1091 2110
11371



5251 6958

6339


8432
253 516 1181 1978 3591 3903 4529 4652 4772 5354 5989 6200 7207 7660 7841 8081 8267 8879 9015 10052 11020
2523 3849 4058 5383 5910 7906 9364 10699


253 2417 2483 4741 6613 9466
452 516 700 2056 3775 3788 5116 5946 6924 9825 11306






8059 9077 10916









8448





371 497 2820 3913 5584 7858 9103 11010
1308 1431 3371 3476 3663 4003 4142 5583 5954 7709 8830 9260
4996

176 3009 3459 4175 4431 4904 5855 6854 8219 8416 8782 9212 10275 10861 11371




657 7708

4788 7308 7608 7727 10936
177 388 1074 1292 3414 4884 4890 7773 7858 8327 8609 9364 9518 10227 10301 10361 10485 11345
713 1175 2590 4168 5098 5653 6010 6799 7253 9077



1300






2212 2302 4712 5235 5275 5490 7906 8874 9100 9959 10393




307
10540



573 1051 1231 2309 4169 5838 9030 9523 10010 10240
226 1083 1414 3664 4902 4921 6191 6438 7347 8821 9364 9635 9847



5309
4424




4054 7343 7791 9205 10276


3137
1597 6839 9847

1479 1646 1810 2301 2796 2954 3137 3371 3783 4240 7055 8052 8341 8450 9188 10370
9970

1083 4585 6833 7815 11015

79 307 2110 2475 4039 4219 4262 4309 6964 7008 9225 11348




5141

2691





406 408 868 1574 2806 2868 3381 4418 4624 6438 7373 7446 8175 8264 8363 9359 9562
8540


867 952 2523 2540 3023 7711 7800 8819

2096 2774 4884 5206 6355 9258 10440 10608
339 933 2110 2496 2693 3467 3892 4481 5111 5490 5900 7424 7984 8822 9611 11216 11348


6067



9106
1732
448 484 4169 5490 6701 8760 10083


253 289 1624 1748 2594 4011 4065 4472 4587 5402 5735 5883 6120 6187 6564 9149 9205 9338 10361 10540


9969

1083 9481



274 420 994 1126 1522 1704 2096 2594 2808 3326 3452 3857 4328 5254 5347 5798 5997 6187 6778 7015 7116 7487 7828 7926 8050 8284 8517 8518 9550 9628 10082 10379 10396 10433 10890 11102

131 432 496 1184 1655 1704 2457 2608 3903 7560 8733 10857 10858 11158
3903
79


4416 5395 8591


496


7720 7731 9562
1043 7308




8992
8918
1564 2987 4226 6684 7094 9212 9919
2663



6066
3934 7207
9103 10741

412 803 5584 6200
713 1017 5182 5584 6187 8059 8072 8517 10607






253 452 516 891 2417 2508 2680 3452 3726 4529 4702 5048 5989 6392 6836 7511 8425 8549 8879 10408 11027
3567 9225
497 2617 4416 10165
432 713 976 3663 5087 7819 9426 11374
1851 8295




9156
253 1605 2417 4065 4176 4316 6273 6613 6740 6798 8426 8737

1254 1394 1528 2432 2508 4160 5489 5716 6392 7117 7909 9655 10969


7685





516 5141 5287 5354 5563 5766 6192 8376 8636 8879 8962
10763

6729 11112
1225
556 2877 6294 7550




2195

1038 3130 6094 7819 8792 10479
14 167 350 369 774 933 2184 2482 2494 2689 3423 3788 4009 4196 4405 4427 4444 4449 4587 5116 5430 5691 5769 5862 5875 6167 6825 6878 7080 7097 7147 7206 7244 7424 7435 7464 7672 7823 8457 8475 8956 9151 9562 9713 9727 9859 9949 10175 10213 10343 10394 10437 10540 10764 10973 11151 11279 11306
1967 3816 4156 4743 5326 7134 8100 8272 8594
3348 6429 8726 9181
274 420 993 1059 1528 1638 1923 2096 2786 2955 3157 3414 3720 3832 4408 4413 4416 4626 4978 5098 5115 5251 5443 5457 5561 5584 5593 5814 5930 6134 6320 6533 6844 7493 7671 7689 7730 7909 8050 8502 8544 9316 9535 9550 10241 10337 10460 11036 11359
591 1133 1483 2960 5584 6395 7348 8181

1715 2461 3074 4405 6213 6402 10320
1414


469 1098 1366 1534 1783 4436 5144 7343 8556 9205 10160 10461 10510

6878 9847 10501
4867
215 2417 4077 4169 4196 5281 6143
307 9945
8425


600





3949 6297 7689 10969





3492 10508


1111 1503 2630 3272 7863 9083




952 1094 4327 4835 5009 7320 7711 7864 8818 10402 10828
1391 3663 5056 6678 9426






1799 2661 4601 5528 5556 5688 6318 6457 7679 8213






7139
2455 7308
1352 8237
3724 7733
10460






7711 8627





6 2744 7689 8426 8550 10361
308 1225 1715 3062 7008 9796 11059
952 1101 1366 3021 4606 5161 5728 6047 7287 7608 8551 8918 10461


5816


8830



3371 7897





4327 9562

7733
7405 10033
215 1851 2381 3504 4446 8556 9562
3293 9367
653
1955 4658 4743 6294
1881 2642 3881 5889 9537 10450
424 737 1014 1225 1534 2461 3028 3354 3596 3712 4050 4125 5195 5383 5732 5733 5805 5910 6214 6755 7869 8293 8603 8657 8660 9862 10320 10519 11371



7040 9847



774 1986 2125 3038 5532 5900 6187 7570 8126 8424





925 6267 9702 11215
3922

7234
8612





4176 5048 9769
573 2680 3379 4582 6392 6613 6836 7493 7646 7725 9149 9575 9730 10241
2547 4921 6361 9151 10542 10748
313 1835 2763 3073 3271 3763 4587 4872 9367

307 3009 6554 7532 8612 9153 9163 10084 10510 11349


7234 8888 9451
7308


2535 4175 6975 8083


1083 1736 1968 2494 3546 4304 4772 4858 6066 7117 8306 8424



605 5259
10448


4562 9464 10403 10440
713 2786 3788 5259 5436 5845 6527 10708

4333 6527 8821 11102
223 2494 3005 4425 7474 8051 8851 9037


8475
2417 4772
8095

10668

1045



1414 2231 5143 6515 7316
484 1157 1861 2115 2167 2187 2319 3225 3922 3959 4011 4626 5763 5933 6113 6141 6692 6884 7083 8540 8591 8660 9143 9712 10102 11296 11359
3065






4526







6276 10653
6355


11015
4743

184 910 952 1366 1569 1708 1715 1888 1953 2407 2650 3060 3935 4436 4975 5144 5235 5598 5721 6267 7308 8833 9150 9319 9939 10112 10248 10402 10897








5048
253 2417 10159 10224
2455


4033 5838 9015 9295

7788


204 672 1397 1559 2508 3371 3554 3564 3726 3903 3949 4848 5048 5115 5141 5807 6429 6471 7074 7730 8390 8497 8726 9316 9355 9650 10086 11021 11077

527 1157 1403 1603 2729 2940 3038 4386 4758 5156 5439 6019 6192 7570 9149 9451 9475 10288 10540 10969



4326

6661
5561 10860
7897 9188

7634

5452 7974




1431 3449 5259 7185 8476 10905 11365
4326

705
7308 11371




1403 1989 4386 5900 7406 8090

266 452 6884 7773 8609 9775 11153
277 4472 5402 9205 9562 9763
302 319 847 952 1101 1534 1715 3057 3645 4018 5721 5855 6685 6686 7287 8369 8551 8825 8848 9276 9586 9974 10461 10861 11020
713 10884
135 253 674 933 1181 1373 1695 1699 1715 1717 2141 2417 2483 2494 3159 3214 3504 4529 4812 4907 5116 5251 5484 6214 6326 6389 6799 6808 7105 7217 7550 7811 8147 8425 8677 8737 8821 9082 9151 9177 9635 10052 10487 10748 10823 11036

2464 10294



5490


302 307 1503 1708 2170 2664 4175 5024 5713 5732 5914 6450 6685 7075 7694 8432 10487 10624 10644


10960


412 1847 1935 2096 2345 5063 6992 8091 8688 11102
5735 10010
5690
5436 6479 7715 11015
454 3137 10804

6214



910
10033
4316 7167 9030 10394
1826 10540

1989
9279












910 6036

2391 5890






8861 10219

8492

1353 1486 3566 4288 8050 8330 9103



2535
129 952 1225 1409 1577 1701 1851 2227 3501 5546 5728 5914 6214 6581 6684 7863 7869 7967 8021 8874 8910 9151 10202 10277 10487 10995 11074

3572 9455 11362

8192
11015
10900

10828


916 10043
3321 4054 4384 6450 9857
2312 5087 5194 7715 8561 8591 9432 10819
1300 2134 2455 2528


1751 2121 4142 5490 6187 6533 6547 8200 9337 9815
338 374 3650 8706 8825



8047




9847

6082






4054 6975

321 579 1569 1574 1715 2877 3027 3607 4039 4364 4646 6172 6213 7207 7373 7474 7711 9364 9416 9562 10371 11151

6450 7667 8244







6067


727 952 2913 4054 4658 5690 7059 8992 9014 9163 9225


828 5732 6661 6878 7160 10148


867 2263 2855 3074 3664 5326 5519 6758 7711 7766 10837
4649
199 4247

96 234 2747 3371 3523 3631 3719 4128 4799 5009 6053 6218 6360 6391 6833 6839 6939 6966 8500 9173 10343 11151

5136

344 705 755 1414 1736 2182 2395 3027 3472 3971 4728 4799 5094 5116 5260 5304 5862 6833 6880 7292 7424 7640 7711 7747 9064 9156 9367 9562 9847 10925

6999


1137 1655 2675 3371 4884 5424 5436 8402 10960 11359
10139




10043


8517 9690

9065
2555



7444

327 3074 9120



5798 9712
279 289 573 715 1044 2417 2784 5563 6187 6527 6537 8445 9466 9850 9970 10351




381 7447
618 5900
6349 10033


313 2366 9241 11082

2096 3214 4176 5347 5955 6547 6989 8181 8398 8591 8609 10707 11180
3371
1538 2535 2707 3191 3935 3954 3970 4904 8448 10567 10612


5657 9626


580

516 3788 4326 6125 7711 8424
8325

4267


1350
11365




3573 6589 7711 8524 9682 10849
3310 4054 5721 7138 8918 9723
952 6285 6931 7791 8495 8874 9388 10148





6509

4436 6794


253 630 1414 1912 3210 3321 3664 5991 7510 7711 10054 10394 10473



2464

177 1751 2136 6134 6533 7158 9562 10088
1233 2301 3429 4446 5255 5674 6293 6678 8359 9023 11365

1045

713 2488

630 774 1181 1748 2417 2591 2680 2868 3472 4529 4858 5470 7504 8888 9053 9690 10590 11239

1792 7909
6657
3259
253 2417 5563 6613
4384


7347 8782


910 1043






176 478 3259 3378 3689 4267 4496 4872 5591 6012 6589 7173 8318 9853 9945 10501


2309


1225 2560 3064 4899 5296 5713 5728 6036 6819 8669 8723 10861
654 1094 2309 2806 4449 4879 7094 7373 7446 7791 9364 9562 10510 11151









2784 5735 6778 9850 10371 10487 11120 11293


8723 10548


5900 6356 7926 9065 9847 10209 10347
135 217 5224 6066 8360 8551 9475


385 694 795 821 1217 1634 2905 3023 4156 4409 4849 5321 5326 5750 6205 6438 7262 7435 7923 8369 8495 8821 9064 9367 9425 9485 10343 10807 10989
11170
1923 4848 6318 6844 10967

2781 3736 4636 5584 6935 10241


3271 7019

853

3942 8281 11371


1232 1486 1967 2820 4001 4169 4872 5326 5584 5989 7493 7534 7634 7890 7909 8822 9690 9766 9918


6192 7553 7823
654 806 2868 3219 3736 6519 6613 7909 8156 8192
2643 9432



9729 10498
1699 2085 2381 4176 5048 5587 7557 8424 10186 10337 10590
104 7936



1083 2784 5048 5116 5398 5805 7711 8627 10394 10487


7604 9775


8792





1634 3607 4646 6515 10745 11089

5758 6554 6611 9163 11238

6389 11001
2212 4431 6036 6267 8669 9702 11278
169 477 709 910 986 1384 1414 1548 1603 2134 2141 2326 2535 2618 2721 2987 3027 4326 4545 4758 5725 6493 6497 7040 8410 8551 8556 9216 9367 9847 10113 10288 10376 10544 11328

253 279 2417 3937 4472 6293 7234 9149 9466 9775 10990

1601



302 925 1014 1225 2259 3596 5113 5732 5855 6139 6409 6975 7308 9106 9886 10033 11349
2673 8175 8426 9338 9992



120 1979 9151 11139
1457 1923 2195 9813 10992



952 2946 4054 4166 5236 6589 6819 7357 7420
3028 4384 6450




7674






11346





120 7784
2259
3379 4065 4503 8609 9775



2389 9847


1074 1522 2319 2617 4408 6778 8300 8517 9562 9753 9992


6844 10749




477 6731 9989 10675

3074 4645 9944 11142
5439







474 1405 4961 6439 8561 8608
330 334 454 2543 5251 6187 8432 9850 9905
779 1014 7869 8432 8918 9857 9920 10084

2597 5805
253 2868
4457 5997







10288


3501 8612
2729 8290

1974 2818 3129 4333 8750 8866 9007 9846

2096 8564


7429 9464
388 2726 6320 7015 7570 9690
5259 11362
727 779 1221 1225 1538 1597 1724 2650 3465 3522 4534 4678 4743 5758 5826 5900 6181 6267 6450 7308 7376 7427 7869 7993 8729 8782 8800 8915 9100 9347 9367 9537 10086 10095 10148 10337 10376 10689






6975


779
2008 4333 6412 7139 9151 10370


618 1083 6214 7247 8932 9859 10320 11180
2464 5402 11180





1443 2304 3489 9878

564 952 3021 3656 4310 4751 5452 6181 6294 6362 7008 7138 7343 7727 7782 8577 8612 9054 9329 9857 9974 10327 10525 10989 11348
4196 5116 6213 8627 9411


7247

2464 6187

7549
9945





226 1623 1647 1809 1881 2618 3816 4128 5214 5383 5485 5598 8303 8371 9169 9562 10510 10735 10828 11105

1783




5900

514


5831 6039

6344
217 364 1013 1221 1384 1414 1603 1681 2289 2395 2693 2917 3472 3523 3542 4391 4427 4646 4785 4921 5036 5813 5883 5900 6012 6450 6999 7427 7892 8279 8430 8475 9015 9053 9401 9581 9708 9766 9847 10054 10114 10689 10935 10939 11306
1708 3011 10764
9355 9971 10837

3271 10394



10340






1394 1655 3129 3698 4599


4679 7897








1366 1538 2036 2650 3909 6100 8379 10255








3513 8093
506 3567 5287 5704 7316 9364

1710 5032 9581


2289





7076

396 1012 1091 2381 2729 2784 2991 4386 4584 5765 6218 6249 6630 7730 7990 8424 9082 10301 10371 10652


1429 3498 7029

3675

490 4872
334 7504 9234

11132





253 477 516 654 1252 1624 2085 2417 5501 5816 8290 11010
1799 4136 9806
3384 9432 9753



1955 7608 10255

5807


1569 7550 9054 10783





11015
952 10095 10861


7357
3596 6349
2796 4161 7139 7897 8350 9284




5004 5900 9359
525 1708 2650 7733
339 506 868 1988 3191 4273 5326 5598 7909 9364
7646






172 302 8585 10095







2784 5484 10590
1431 4288 6283 9491 10026
1655 6109
6392
1360 5798 6223






2045 5304




253 654 2383 3570 4169 5584 6187 6326 6701 6852 8609 9205 10003

1381


8936
4327 5778 8652 11008
10448
3028 3429












312 1699 2784 5304 6213 6321 6603 8556 8627 9470 10487 10540









9651

3712


1052


2502 6134 6844 7315 8517 8660 8679 9628 10253 11180 11364
1900 5255 8911 9993




3596 8083









687





7709





10525





42 1803 6318 8894 9803 11365
350


491 4025 4646 4952 6213 6402 7357 8535 9425 10388


6519 9971 10086
10443
3832

11074
4436 5728




3248
2899 3541 6856 9103



253 994 1835 2387 2689 3033 3348 4077 4196 4326 5789 7234 7553 7641 7962 8060 8424 9835
176 321 630 1181 1688 1875 2381 2618 3277 4405 4529 4943 4996 5212 5464 6192 6924 8006 8274 8314 8627 8789 8903 9015 9847 10541

516 993 1244 1678 8290 11139

573 5584

253 774 4223 4728 6201 7711 7787
7709











2913 3218 4436 5111 6971 6991 7608 9163 10617
10840



282 933 1231 1373 4001 7643 8315 8549
8743

2693 9347


2483

8158



11036 11180



5259 10105
1444 5133 5259 8330 11365

1300 1414 1511 1715 2309 3388 3548 4327 4785 4799 5326 5732 7019 7892 8500 10347 11328


2726 4176 4842 4890 7348 8181
8295
6755






4884 10161



2261 5036 5484 8627 9015 10086




1024 1045 1065 3156 3970 4073 4436 5296 5910 5949 6181 8729 9886 10156 10525

9106






2280 8208 10205 10542

667 919 994 1498 2119 2799 3415 4177 4529 4740 4945 5672 6533 6669 9149 9205 11102
1523 2096 2617 3913 4065 4155 4884 5087 5347 5379 5583 5906 6355 8181 8609 8737 10784 11153


106 1264 1574 1738 2189 3969 3990 4176 4436 4907 5568 5900 6213 6406 6914 11348





952 4594 8264 8345 9319 10275


3778




9777
2543 4137 9777

454 2559 5561 6223 9206 9550 10061
779 2259 2288 3917 3954 4134 4436 4944 5009 5728 6181 6450 6626 7003 7007 8219 8448 8782 9682 10084 10326 10624 10881 10923

2231 5952 9338

8054


3492

11215
408





3546
6355


76 307 779 2110 2410 3501 3853 4384 4436 4654 4944 5161 5296 5855 6611 6744 7343 8021 8612 9329 10861 11095

5900
2301 2643 4493 8330 10085



3770

4759 6355 9775

327


5347 8737 9021

478 952 1000 2806 5805 8432 9416 10033


10154

9150

8610
6334 8131 10071





1098 3477 6685 7343 8612 9169 9636 11059




3871 9662

425 1256 1699 6808 7088 7711

454 2130 6304 8517

7165
307 1538 8825 10861

369 1132 1695 1947 3219 4326 5281 5439 6074 6165 6208 7160 7811 8161 8424 9401 10213


1523 5156






7822 10540
9011 9689


2265 2618 3941 6187 6191 7711 10540 11132

1393 2115 4386 5156 6297


















1101 1175 1534 2399 2806 3004 3453 3501 5470 5861 6191 6685 6964 6971 8425 8441 8679 9054 9485 10098 10218 10977
199 713 1771 4303

2985



516 596 769 2432 2508 4702 5989 7207 9139 10349

279 3128 3775 5136 7711 8424 9825 9872 10054
1910 8876
3371 7709
3021 4054 7100 7727 8448
3371 4053 5021 9847
388 2675 5814


201 1704 1923 2464 3832 5556 7689 7796 8241 8609 8809 8836 9475 10960
1231 4578 5875

253 516 1191 2417

2673 3067 3118 3542 3572 8647 8830 8849 8895


1835 2805 4529 5787 7515



223 618 955 1316 1851 3664 3816 4436 5683 6213 7474 7549 8051 8314 8360 9225 9364 10347 10510 11210
371 408 803 3225 4626 4884 5688 5763 5820 6233 6884 8226 8712 8843 10396 11153
1810 5392 6527
4339 6113 10408


10148
1094 3790



1157 2693 4646 11074
5048 6125 7009 10392






3650 3849 3902 6800 7292 9228 10674

371 652 715 2594 2654 4065 4472 4626 4773 4884 5141 5798 7265 8502 8575 8937 9112 9678 10606 11139

3992

3736
1012 1300 1678 1869 2259 2369 2813 2917 3851 4017 4176 4584 4646 4785 4921 5116 5691 5826 6355 6736 7019 7064 7557 7647 8314 8316 9011 9149 9367 9411 9562 9732 10030 10104 10153 10623




167 389 565 788 1094 1231 1254 1457 1706 2508 2680 2987 3064 3596 3726 3882 3949 4267 5163 5324 5758 5783 6192 6306 6412 6844 7003 7062 7117 7316 7884 8219 8270 8989 9316 9367 9650 10084 11036 11082 11348
4702 4772 6144 10052 11175





1113 1244 1923 3402 3504 5618 5807 7003 8432 9205 9316 9813 11182








1704 1934 2868 5580 5756 7711 9149 9850 10086 10800 11020 11180


327 1296 2140 2689 4765 8516
4054 6819





9065

1810 4517 5259






6344 11189



727 910 3041 3163 3596 5024 6755 7008 8281 8348 8763 8874 9212 9919 10911
1955




1268 8059

8126


4646



3942 4712 6778 6975 10148 10752 11000
6737

253 477 5501 10052
9367

7458

223 3547 10251 11020






229 1623 2309 6213 6438 7643 10388
6067 7681 11365
573 2266 5955 6187 9562



4436 10881




621

90 253 1133 1350 1559 1655 2187 2729 2774 2795 2914 3129 3490 3538 5268 5561 6395 7239 8056 8395 8431 8523 9338 9775 9995 10101 10839 11205


1746 5900 9548 10525



2096 5098 6187 6547 7715 8002 8012 8181

5116
331 937 1597 2639 2916 4110 4167 6192 9451 9837



1414 4654
8814

313 1150 1300 2528 3118 3881 3902 4762 4972 5052 5900 6356 6800 6839 6878 7142
10337



7275




6067

3382 5470
2132 2943 3402 3564 5287 6173 10600 10939






90 120 381 631 1360 1655 1833 3219 4252 4703 4978 6981 9039 10407 10766 11010


10450

7921






1634 8867 9847 10186 10209 10327

715 788 3371 4844 5340 8679 10082 10840 10990

8679
1697

5954 8849 9777



5618



8821



279 369 674 1181 4169 7711 8424 10348



8175
1753 8518 11021




1803 2124 3736 4392 4503 4605 4965 5259 5387 5584 5763 5783 7640 8241 8843 10253 10501 10502 10707 10800 11036 11296

700 2639 3453 6569 7048 7265 8853 9331 11027


1601



652 672 1986 1989 2085 2940 3371 3949 6331 6471 6836 6844 7217 7570 7808 11055






8577




1847
2537 4179


412 1074 5259 6527 7204 7348 11102




10989



6684 8777
610 1708 2302 3501 4788 6194 9959 10870
9754
217 491 952 1292 1436 1574 2309 2763 3504 4585 4587 4872 5326 6213 7080 8181 9562 9595
3541 6459




1799 2417



774 787 2353 2395 11306




1352 1366 3711 7791 9329





6747 10390
4688 10301






217 254 4879

8918






6179
5733 7308



477 516 596 2034 2508 2675 2868 3472 4702 5563 5731 8497 8879 9626

7643







4176 6191 7570


6975




184 4943 10393
9847





334 380 5087 5098 5930

1443





2096 4392 5589 8591 10337
1043 4899 7308 7884
340 4242 5087 5133 7235 11365
8241 8853 9523 10010 11180






933 6435


327 1237 2183 2388 2940 4326 5439 6122 6471 7711 9655 9847 10540 11227
8679




















527 1629 2369 2732 3110 9015 10394 10807





1120
7936

7844

709




8591
1655 7458 9690
4666 10425

2597 3074 4273 4444 4879 4952 5326 7643 9734 9754 10510 10843 11020
307 1352 3310 3934 4726 7550 8950 9974 10402

4565



2096 3214 3873 5347 6134 6187 6547

1704 5141 6439 6802
8582
124 713 1350 1845 1931 2894 4562 4690 5087 5436 5598 7015 8222 8260 8517 8894 9523 9850 10010 10218


562 3391 5259 5436 9260 9555 10150 10486
2913 4872 5602 7766
573 2896 6392 7493 8221 8550 8878 10707
183 258 432 454 1115 1338 1429 2478 3137 3489 3572 3967 4137 4288 4333 5086 5342 6094 6143 6359 6683 7029 7817 7819 7831 8095 8212 8750 8792 8887 10071 10270 10295 10741 10805 11090 11295





1661 1839 2650 2946 3648 3935 4043 4166 5713 6288 6589 6778 7059 8281 9640 9682 9945 10075 10358


9816
